*SPEF "ieee 1481-1999"
*DESIGN "soc_top"
*DATE "04:29:13 Monday September 28, 2026"
*VENDOR "The OpenROAD Project"
*PROGRAM "OpenROAD"
*VERSION "edf00dff99f6c40d67a30c0e22a8191c5d2ed9d6"
*DESIGN_FLOW "NAME_SCOPE LOCAL" "PIN_CAP NONE"
*DIVIDER /
*DELIMITER :
*BUS_DELIMITER []
*T_UNIT 1 NS
*C_UNIT 1 PF
*R_UNIT 1 OHM
*L_UNIT 1 HENRY

*NAME_MAP
*3 clk
*4 gpio_in[0]
*5 gpio_in[1]
*6 gpio_in[2]
*7 gpio_in[3]
*8 gpio_in[4]
*9 gpio_in[5]
*10 gpio_in[6]
*11 gpio_in[7]
*12 net70
*13 net71
*14 net72
*15 net73
*16 net74
*17 net75
*18 net76
*19 net77
*20 i2c_scl
*21 i2c_sda_in
*22 net69
*23 net79
*24 net3
*25 net13
*26 net14
*27 net15
*28 net16
*29 net17
*30 net18
*31 net19
*32 net20
*33 net21
*34 net22
*35 net4
*36 net23
*37 net24
*38 net25
*39 net26
*40 net27
*41 net28
*42 net29
*43 net30
*44 net31
*45 net32
*46 net5
*47 net33
*48 net34
*49 net35
*50 net36
*51 net37
*52 net38
*53 net39
*54 net40
*55 net41
*56 net42
*57 net6
*58 net43
*59 net44
*60 net45
*61 net46
*62 net47
*63 net48
*64 net49
*65 net50
*66 net51
*67 net52
*68 net7
*69 net53
*70 net54
*71 net55
*72 net56
*73 net57
*74 net58
*75 net59
*76 net60
*77 net61
*78 net62
*79 net8
*80 net63
*81 net64
*82 net65
*83 net66
*84 net9
*85 net10
*86 net11
*87 net12
*88 rst
*89 net67
*90 spi_miso
*91 net68
*92 spi_sclk
*93 net78
*94 uart_rx
*95 net80
*96 clknet_0_clk
*97 clknet_1_0__leaf_clk
*98 clknet_1_1__leaf_clk
*99 net1
*100 net2
*101 FILLER_0_109
*102 FILLER_0_113
*103 FILLER_0_125
*104 FILLER_0_137
*105 FILLER_0_141
*106 FILLER_0_15
*107 FILLER_0_153
*108 FILLER_0_165
*109 FILLER_0_169
*110 FILLER_0_181
*111 FILLER_0_193
*112 FILLER_0_197
*113 FILLER_0_209
*114 FILLER_0_221
*115 FILLER_0_225
*116 FILLER_0_237
*117 FILLER_0_249
*118 FILLER_0_253
*119 FILLER_0_265
*120 FILLER_0_27
*121 FILLER_0_277
*122 FILLER_0_281
*123 FILLER_0_29
*124 FILLER_0_293
*125 FILLER_0_3
*126 FILLER_0_305
*127 FILLER_0_309
*128 FILLER_0_314
*129 FILLER_0_321
*130 FILLER_0_328
*131 FILLER_0_335
*132 FILLER_0_337
*133 FILLER_0_342
*134 FILLER_0_349
*135 FILLER_0_356
*136 FILLER_0_365
*137 FILLER_0_377
*138 FILLER_0_389
*139 FILLER_0_393
*140 FILLER_0_405
*141 FILLER_0_41
*142 FILLER_0_417
*143 FILLER_0_421
*144 FILLER_0_433
*145 FILLER_0_445
*146 FILLER_0_449
*147 FILLER_0_461
*148 FILLER_0_473
*149 FILLER_0_477
*150 FILLER_0_489
*151 FILLER_0_501
*152 FILLER_0_505
*153 FILLER_0_517
*154 FILLER_0_529
*155 FILLER_0_53
*156 FILLER_0_533
*157 FILLER_0_545
*158 FILLER_0_557
*159 FILLER_0_561
*160 FILLER_0_57
*161 FILLER_0_573
*162 FILLER_0_585
*163 FILLER_0_589
*164 FILLER_0_601
*165 FILLER_0_613
*166 FILLER_0_617
*167 FILLER_0_629
*168 FILLER_0_641
*169 FILLER_0_645
*170 FILLER_0_657
*171 FILLER_0_665
*172 FILLER_0_69
*173 FILLER_0_81
*174 FILLER_0_85
*175 FILLER_0_97
*176 FILLER_100_109
*177 FILLER_100_121
*178 FILLER_100_133
*179 FILLER_100_139
*180 FILLER_100_141
*181 FILLER_100_15
*182 FILLER_100_153
*183 FILLER_100_165
*184 FILLER_100_177
*185 FILLER_100_189
*186 FILLER_100_195
*187 FILLER_100_197
*188 FILLER_100_209
*189 FILLER_100_221
*190 FILLER_100_233
*191 FILLER_100_245
*192 FILLER_100_251
*193 FILLER_100_253
*194 FILLER_100_265
*195 FILLER_100_27
*196 FILLER_100_277
*197 FILLER_100_289
*198 FILLER_100_29
*199 FILLER_100_3
*200 FILLER_100_301
*201 FILLER_100_307
*202 FILLER_100_309
*203 FILLER_100_321
*204 FILLER_100_333
*205 FILLER_100_345
*206 FILLER_100_357
*207 FILLER_100_363
*208 FILLER_100_365
*209 FILLER_100_377
*210 FILLER_100_389
*211 FILLER_100_401
*212 FILLER_100_41
*213 FILLER_100_413
*214 FILLER_100_419
*215 FILLER_100_421
*216 FILLER_100_433
*217 FILLER_100_445
*218 FILLER_100_457
*219 FILLER_100_469
*220 FILLER_100_475
*221 FILLER_100_477
*222 FILLER_100_489
*223 FILLER_100_501
*224 FILLER_100_513
*225 FILLER_100_525
*226 FILLER_100_53
*227 FILLER_100_531
*228 FILLER_100_533
*229 FILLER_100_545
*230 FILLER_100_557
*231 FILLER_100_569
*232 FILLER_100_581
*233 FILLER_100_587
*234 FILLER_100_589
*235 FILLER_100_601
*236 FILLER_100_613
*237 FILLER_100_625
*238 FILLER_100_637
*239 FILLER_100_643
*240 FILLER_100_645
*241 FILLER_100_65
*242 FILLER_100_657
*243 FILLER_100_665
*244 FILLER_100_77
*245 FILLER_100_83
*246 FILLER_100_85
*247 FILLER_100_97
*248 FILLER_101_105
*249 FILLER_101_111
*250 FILLER_101_113
*251 FILLER_101_125
*252 FILLER_101_137
*253 FILLER_101_149
*254 FILLER_101_15
*255 FILLER_101_161
*256 FILLER_101_167
*257 FILLER_101_169
*258 FILLER_101_181
*259 FILLER_101_193
*260 FILLER_101_205
*261 FILLER_101_217
*262 FILLER_101_223
*263 FILLER_101_225
*264 FILLER_101_237
*265 FILLER_101_249
*266 FILLER_101_261
*267 FILLER_101_27
*268 FILLER_101_273
*269 FILLER_101_279
*270 FILLER_101_281
*271 FILLER_101_293
*272 FILLER_101_3
*273 FILLER_101_305
*274 FILLER_101_317
*275 FILLER_101_329
*276 FILLER_101_335
*277 FILLER_101_337
*278 FILLER_101_349
*279 FILLER_101_361
*280 FILLER_101_373
*281 FILLER_101_385
*282 FILLER_101_39
*283 FILLER_101_391
*284 FILLER_101_393
*285 FILLER_101_405
*286 FILLER_101_417
*287 FILLER_101_429
*288 FILLER_101_441
*289 FILLER_101_447
*290 FILLER_101_449
*291 FILLER_101_461
*292 FILLER_101_473
*293 FILLER_101_485
*294 FILLER_101_497
*295 FILLER_101_503
*296 FILLER_101_505
*297 FILLER_101_51
*298 FILLER_101_517
*299 FILLER_101_529
*300 FILLER_101_541
*301 FILLER_101_55
*302 FILLER_101_553
*303 FILLER_101_559
*304 FILLER_101_561
*305 FILLER_101_57
*306 FILLER_101_573
*307 FILLER_101_585
*308 FILLER_101_597
*309 FILLER_101_609
*310 FILLER_101_615
*311 FILLER_101_617
*312 FILLER_101_629
*313 FILLER_101_641
*314 FILLER_101_653
*315 FILLER_101_665
*316 FILLER_101_69
*317 FILLER_101_81
*318 FILLER_101_93
*319 FILLER_102_109
*320 FILLER_102_121
*321 FILLER_102_133
*322 FILLER_102_139
*323 FILLER_102_141
*324 FILLER_102_15
*325 FILLER_102_153
*326 FILLER_102_165
*327 FILLER_102_177
*328 FILLER_102_189
*329 FILLER_102_195
*330 FILLER_102_197
*331 FILLER_102_209
*332 FILLER_102_221
*333 FILLER_102_233
*334 FILLER_102_245
*335 FILLER_102_251
*336 FILLER_102_253
*337 FILLER_102_265
*338 FILLER_102_27
*339 FILLER_102_277
*340 FILLER_102_289
*341 FILLER_102_29
*342 FILLER_102_3
*343 FILLER_102_301
*344 FILLER_102_307
*345 FILLER_102_309
*346 FILLER_102_321
*347 FILLER_102_333
*348 FILLER_102_345
*349 FILLER_102_357
*350 FILLER_102_363
*351 FILLER_102_365
*352 FILLER_102_377
*353 FILLER_102_389
*354 FILLER_102_401
*355 FILLER_102_41
*356 FILLER_102_413
*357 FILLER_102_419
*358 FILLER_102_421
*359 FILLER_102_433
*360 FILLER_102_445
*361 FILLER_102_457
*362 FILLER_102_469
*363 FILLER_102_475
*364 FILLER_102_477
*365 FILLER_102_489
*366 FILLER_102_501
*367 FILLER_102_513
*368 FILLER_102_525
*369 FILLER_102_53
*370 FILLER_102_531
*371 FILLER_102_533
*372 FILLER_102_545
*373 FILLER_102_557
*374 FILLER_102_569
*375 FILLER_102_581
*376 FILLER_102_587
*377 FILLER_102_589
*378 FILLER_102_601
*379 FILLER_102_613
*380 FILLER_102_625
*381 FILLER_102_637
*382 FILLER_102_643
*383 FILLER_102_645
*384 FILLER_102_65
*385 FILLER_102_657
*386 FILLER_102_665
*387 FILLER_102_77
*388 FILLER_102_83
*389 FILLER_102_85
*390 FILLER_102_97
*391 FILLER_103_105
*392 FILLER_103_111
*393 FILLER_103_113
*394 FILLER_103_125
*395 FILLER_103_137
*396 FILLER_103_149
*397 FILLER_103_15
*398 FILLER_103_161
*399 FILLER_103_167
*400 FILLER_103_169
*401 FILLER_103_181
*402 FILLER_103_193
*403 FILLER_103_205
*404 FILLER_103_217
*405 FILLER_103_223
*406 FILLER_103_225
*407 FILLER_103_237
*408 FILLER_103_249
*409 FILLER_103_261
*410 FILLER_103_27
*411 FILLER_103_273
*412 FILLER_103_279
*413 FILLER_103_281
*414 FILLER_103_293
*415 FILLER_103_3
*416 FILLER_103_305
*417 FILLER_103_317
*418 FILLER_103_329
*419 FILLER_103_335
*420 FILLER_103_337
*421 FILLER_103_349
*422 FILLER_103_361
*423 FILLER_103_373
*424 FILLER_103_385
*425 FILLER_103_39
*426 FILLER_103_391
*427 FILLER_103_393
*428 FILLER_103_405
*429 FILLER_103_417
*430 FILLER_103_429
*431 FILLER_103_441
*432 FILLER_103_447
*433 FILLER_103_449
*434 FILLER_103_461
*435 FILLER_103_473
*436 FILLER_103_485
*437 FILLER_103_497
*438 FILLER_103_503
*439 FILLER_103_505
*440 FILLER_103_51
*441 FILLER_103_517
*442 FILLER_103_529
*443 FILLER_103_541
*444 FILLER_103_55
*445 FILLER_103_553
*446 FILLER_103_559
*447 FILLER_103_561
*448 FILLER_103_57
*449 FILLER_103_573
*450 FILLER_103_585
*451 FILLER_103_597
*452 FILLER_103_609
*453 FILLER_103_615
*454 FILLER_103_617
*455 FILLER_103_629
*456 FILLER_103_641
*457 FILLER_103_653
*458 FILLER_103_665
*459 FILLER_103_69
*460 FILLER_103_81
*461 FILLER_103_93
*462 FILLER_104_109
*463 FILLER_104_121
*464 FILLER_104_133
*465 FILLER_104_139
*466 FILLER_104_141
*467 FILLER_104_15
*468 FILLER_104_153
*469 FILLER_104_165
*470 FILLER_104_177
*471 FILLER_104_189
*472 FILLER_104_195
*473 FILLER_104_197
*474 FILLER_104_209
*475 FILLER_104_221
*476 FILLER_104_233
*477 FILLER_104_245
*478 FILLER_104_251
*479 FILLER_104_253
*480 FILLER_104_265
*481 FILLER_104_27
*482 FILLER_104_277
*483 FILLER_104_289
*484 FILLER_104_29
*485 FILLER_104_3
*486 FILLER_104_301
*487 FILLER_104_307
*488 FILLER_104_309
*489 FILLER_104_321
*490 FILLER_104_333
*491 FILLER_104_345
*492 FILLER_104_357
*493 FILLER_104_363
*494 FILLER_104_365
*495 FILLER_104_377
*496 FILLER_104_389
*497 FILLER_104_401
*498 FILLER_104_41
*499 FILLER_104_413
*500 FILLER_104_419
*501 FILLER_104_421
*502 FILLER_104_433
*503 FILLER_104_445
*504 FILLER_104_457
*505 FILLER_104_469
*506 FILLER_104_475
*507 FILLER_104_477
*508 FILLER_104_489
*509 FILLER_104_501
*510 FILLER_104_513
*511 FILLER_104_525
*512 FILLER_104_53
*513 FILLER_104_531
*514 FILLER_104_533
*515 FILLER_104_545
*516 FILLER_104_557
*517 FILLER_104_569
*518 FILLER_104_581
*519 FILLER_104_587
*520 FILLER_104_589
*521 FILLER_104_601
*522 FILLER_104_613
*523 FILLER_104_625
*524 FILLER_104_637
*525 FILLER_104_643
*526 FILLER_104_645
*527 FILLER_104_65
*528 FILLER_104_657
*529 FILLER_104_665
*530 FILLER_104_77
*531 FILLER_104_83
*532 FILLER_104_85
*533 FILLER_104_97
*534 FILLER_105_105
*535 FILLER_105_111
*536 FILLER_105_113
*537 FILLER_105_125
*538 FILLER_105_137
*539 FILLER_105_149
*540 FILLER_105_15
*541 FILLER_105_161
*542 FILLER_105_167
*543 FILLER_105_169
*544 FILLER_105_181
*545 FILLER_105_193
*546 FILLER_105_205
*547 FILLER_105_217
*548 FILLER_105_223
*549 FILLER_105_225
*550 FILLER_105_237
*551 FILLER_105_249
*552 FILLER_105_261
*553 FILLER_105_27
*554 FILLER_105_273
*555 FILLER_105_279
*556 FILLER_105_281
*557 FILLER_105_293
*558 FILLER_105_3
*559 FILLER_105_305
*560 FILLER_105_317
*561 FILLER_105_329
*562 FILLER_105_335
*563 FILLER_105_337
*564 FILLER_105_349
*565 FILLER_105_361
*566 FILLER_105_373
*567 FILLER_105_385
*568 FILLER_105_39
*569 FILLER_105_391
*570 FILLER_105_393
*571 FILLER_105_405
*572 FILLER_105_417
*573 FILLER_105_429
*574 FILLER_105_441
*575 FILLER_105_447
*576 FILLER_105_449
*577 FILLER_105_461
*578 FILLER_105_473
*579 FILLER_105_485
*580 FILLER_105_497
*581 FILLER_105_503
*582 FILLER_105_505
*583 FILLER_105_51
*584 FILLER_105_517
*585 FILLER_105_529
*586 FILLER_105_541
*587 FILLER_105_55
*588 FILLER_105_553
*589 FILLER_105_559
*590 FILLER_105_561
*591 FILLER_105_57
*592 FILLER_105_573
*593 FILLER_105_585
*594 FILLER_105_597
*595 FILLER_105_609
*596 FILLER_105_615
*597 FILLER_105_617
*598 FILLER_105_629
*599 FILLER_105_641
*600 FILLER_105_653
*601 FILLER_105_665
*602 FILLER_105_69
*603 FILLER_105_81
*604 FILLER_105_93
*605 FILLER_106_109
*606 FILLER_106_121
*607 FILLER_106_133
*608 FILLER_106_139
*609 FILLER_106_141
*610 FILLER_106_15
*611 FILLER_106_153
*612 FILLER_106_165
*613 FILLER_106_177
*614 FILLER_106_189
*615 FILLER_106_195
*616 FILLER_106_197
*617 FILLER_106_209
*618 FILLER_106_221
*619 FILLER_106_233
*620 FILLER_106_245
*621 FILLER_106_251
*622 FILLER_106_253
*623 FILLER_106_265
*624 FILLER_106_27
*625 FILLER_106_277
*626 FILLER_106_289
*627 FILLER_106_29
*628 FILLER_106_3
*629 FILLER_106_301
*630 FILLER_106_307
*631 FILLER_106_309
*632 FILLER_106_321
*633 FILLER_106_333
*634 FILLER_106_345
*635 FILLER_106_357
*636 FILLER_106_363
*637 FILLER_106_365
*638 FILLER_106_377
*639 FILLER_106_389
*640 FILLER_106_401
*641 FILLER_106_41
*642 FILLER_106_413
*643 FILLER_106_419
*644 FILLER_106_421
*645 FILLER_106_433
*646 FILLER_106_445
*647 FILLER_106_457
*648 FILLER_106_469
*649 FILLER_106_475
*650 FILLER_106_477
*651 FILLER_106_489
*652 FILLER_106_501
*653 FILLER_106_513
*654 FILLER_106_525
*655 FILLER_106_53
*656 FILLER_106_531
*657 FILLER_106_533
*658 FILLER_106_545
*659 FILLER_106_557
*660 FILLER_106_569
*661 FILLER_106_581
*662 FILLER_106_587
*663 FILLER_106_589
*664 FILLER_106_601
*665 FILLER_106_613
*666 FILLER_106_625
*667 FILLER_106_637
*668 FILLER_106_643
*669 FILLER_106_645
*670 FILLER_106_65
*671 FILLER_106_657
*672 FILLER_106_665
*673 FILLER_106_77
*674 FILLER_106_83
*675 FILLER_106_85
*676 FILLER_106_97
*677 FILLER_107_105
*678 FILLER_107_111
*679 FILLER_107_113
*680 FILLER_107_125
*681 FILLER_107_137
*682 FILLER_107_149
*683 FILLER_107_15
*684 FILLER_107_161
*685 FILLER_107_167
*686 FILLER_107_169
*687 FILLER_107_181
*688 FILLER_107_193
*689 FILLER_107_205
*690 FILLER_107_217
*691 FILLER_107_223
*692 FILLER_107_225
*693 FILLER_107_237
*694 FILLER_107_249
*695 FILLER_107_261
*696 FILLER_107_27
*697 FILLER_107_273
*698 FILLER_107_279
*699 FILLER_107_281
*700 FILLER_107_293
*701 FILLER_107_3
*702 FILLER_107_300
*703 FILLER_107_307
*704 FILLER_107_319
*705 FILLER_107_329
*706 FILLER_107_335
*707 FILLER_107_337
*708 FILLER_107_349
*709 FILLER_107_356
*710 FILLER_107_368
*711 FILLER_107_380
*712 FILLER_107_39
*713 FILLER_107_393
*714 FILLER_107_405
*715 FILLER_107_417
*716 FILLER_107_429
*717 FILLER_107_441
*718 FILLER_107_447
*719 FILLER_107_449
*720 FILLER_107_461
*721 FILLER_107_473
*722 FILLER_107_485
*723 FILLER_107_497
*724 FILLER_107_503
*725 FILLER_107_505
*726 FILLER_107_51
*727 FILLER_107_517
*728 FILLER_107_529
*729 FILLER_107_541
*730 FILLER_107_55
*731 FILLER_107_553
*732 FILLER_107_559
*733 FILLER_107_561
*734 FILLER_107_57
*735 FILLER_107_573
*736 FILLER_107_585
*737 FILLER_107_597
*738 FILLER_107_609
*739 FILLER_107_615
*740 FILLER_107_617
*741 FILLER_107_629
*742 FILLER_107_641
*743 FILLER_107_653
*744 FILLER_107_665
*745 FILLER_107_69
*746 FILLER_107_81
*747 FILLER_107_93
*748 FILLER_108_109
*749 FILLER_108_113
*750 FILLER_108_125
*751 FILLER_108_137
*752 FILLER_108_141
*753 FILLER_108_15
*754 FILLER_108_153
*755 FILLER_108_165
*756 FILLER_108_169
*757 FILLER_108_181
*758 FILLER_108_193
*759 FILLER_108_197
*760 FILLER_108_209
*761 FILLER_108_217
*762 FILLER_108_223
*763 FILLER_108_225
*764 FILLER_108_230
*765 FILLER_108_237
*766 FILLER_108_244
*767 FILLER_108_251
*768 FILLER_108_253
*769 FILLER_108_258
*770 FILLER_108_265
*771 FILLER_108_27
*772 FILLER_108_272
*773 FILLER_108_279
*774 FILLER_108_281
*775 FILLER_108_29
*776 FILLER_108_3
*777 FILLER_108_309
*778 FILLER_108_337
*779 FILLER_108_371
*780 FILLER_108_377
*781 FILLER_108_384
*782 FILLER_108_391
*783 FILLER_108_393
*784 FILLER_108_398
*785 FILLER_108_405
*786 FILLER_108_41
*787 FILLER_108_412
*788 FILLER_108_419
*789 FILLER_108_421
*790 FILLER_108_426
*791 FILLER_108_433
*792 FILLER_108_440
*793 FILLER_108_447
*794 FILLER_108_449
*795 FILLER_108_454
*796 FILLER_108_461
*797 FILLER_108_473
*798 FILLER_108_477
*799 FILLER_108_489
*800 FILLER_108_501
*801 FILLER_108_505
*802 FILLER_108_517
*803 FILLER_108_529
*804 FILLER_108_53
*805 FILLER_108_533
*806 FILLER_108_545
*807 FILLER_108_557
*808 FILLER_108_561
*809 FILLER_108_57
*810 FILLER_108_573
*811 FILLER_108_585
*812 FILLER_108_589
*813 FILLER_108_601
*814 FILLER_108_613
*815 FILLER_108_617
*816 FILLER_108_629
*817 FILLER_108_641
*818 FILLER_108_645
*819 FILLER_108_657
*820 FILLER_108_665
*821 FILLER_108_69
*822 FILLER_108_81
*823 FILLER_108_85
*824 FILLER_108_97
*825 FILLER_10_109
*826 FILLER_10_121
*827 FILLER_10_133
*828 FILLER_10_139
*829 FILLER_10_141
*830 FILLER_10_15
*831 FILLER_10_153
*832 FILLER_10_165
*833 FILLER_10_177
*834 FILLER_10_189
*835 FILLER_10_195
*836 FILLER_10_197
*837 FILLER_10_209
*838 FILLER_10_221
*839 FILLER_10_233
*840 FILLER_10_245
*841 FILLER_10_251
*842 FILLER_10_253
*843 FILLER_10_265
*844 FILLER_10_27
*845 FILLER_10_277
*846 FILLER_10_289
*847 FILLER_10_29
*848 FILLER_10_3
*849 FILLER_10_301
*850 FILLER_10_307
*851 FILLER_10_309
*852 FILLER_10_321
*853 FILLER_10_333
*854 FILLER_10_345
*855 FILLER_10_357
*856 FILLER_10_363
*857 FILLER_10_365
*858 FILLER_10_377
*859 FILLER_10_389
*860 FILLER_10_401
*861 FILLER_10_41
*862 FILLER_10_413
*863 FILLER_10_419
*864 FILLER_10_421
*865 FILLER_10_433
*866 FILLER_10_445
*867 FILLER_10_457
*868 FILLER_10_469
*869 FILLER_10_475
*870 FILLER_10_477
*871 FILLER_10_489
*872 FILLER_10_501
*873 FILLER_10_513
*874 FILLER_10_525
*875 FILLER_10_53
*876 FILLER_10_531
*877 FILLER_10_533
*878 FILLER_10_545
*879 FILLER_10_557
*880 FILLER_10_569
*881 FILLER_10_581
*882 FILLER_10_587
*883 FILLER_10_589
*884 FILLER_10_601
*885 FILLER_10_613
*886 FILLER_10_625
*887 FILLER_10_637
*888 FILLER_10_643
*889 FILLER_10_645
*890 FILLER_10_65
*891 FILLER_10_657
*892 FILLER_10_665
*893 FILLER_10_77
*894 FILLER_10_83
*895 FILLER_10_85
*896 FILLER_10_97
*897 FILLER_11_105
*898 FILLER_11_111
*899 FILLER_11_113
*900 FILLER_11_125
*901 FILLER_11_137
*902 FILLER_11_149
*903 FILLER_11_15
*904 FILLER_11_161
*905 FILLER_11_167
*906 FILLER_11_169
*907 FILLER_11_181
*908 FILLER_11_193
*909 FILLER_11_205
*910 FILLER_11_217
*911 FILLER_11_223
*912 FILLER_11_225
*913 FILLER_11_237
*914 FILLER_11_249
*915 FILLER_11_261
*916 FILLER_11_27
*917 FILLER_11_273
*918 FILLER_11_279
*919 FILLER_11_281
*920 FILLER_11_293
*921 FILLER_11_3
*922 FILLER_11_305
*923 FILLER_11_317
*924 FILLER_11_329
*925 FILLER_11_335
*926 FILLER_11_337
*927 FILLER_11_349
*928 FILLER_11_361
*929 FILLER_11_373
*930 FILLER_11_385
*931 FILLER_11_39
*932 FILLER_11_391
*933 FILLER_11_393
*934 FILLER_11_405
*935 FILLER_11_417
*936 FILLER_11_429
*937 FILLER_11_441
*938 FILLER_11_447
*939 FILLER_11_449
*940 FILLER_11_461
*941 FILLER_11_473
*942 FILLER_11_485
*943 FILLER_11_497
*944 FILLER_11_503
*945 FILLER_11_505
*946 FILLER_11_51
*947 FILLER_11_517
*948 FILLER_11_529
*949 FILLER_11_541
*950 FILLER_11_55
*951 FILLER_11_553
*952 FILLER_11_559
*953 FILLER_11_561
*954 FILLER_11_57
*955 FILLER_11_573
*956 FILLER_11_585
*957 FILLER_11_597
*958 FILLER_11_609
*959 FILLER_11_615
*960 FILLER_11_617
*961 FILLER_11_629
*962 FILLER_11_641
*963 FILLER_11_653
*964 FILLER_11_665
*965 FILLER_11_69
*966 FILLER_11_81
*967 FILLER_11_93
*968 FILLER_12_109
*969 FILLER_12_121
*970 FILLER_12_133
*971 FILLER_12_139
*972 FILLER_12_141
*973 FILLER_12_15
*974 FILLER_12_153
*975 FILLER_12_165
*976 FILLER_12_177
*977 FILLER_12_189
*978 FILLER_12_195
*979 FILLER_12_197
*980 FILLER_12_209
*981 FILLER_12_221
*982 FILLER_12_233
*983 FILLER_12_245
*984 FILLER_12_251
*985 FILLER_12_253
*986 FILLER_12_265
*987 FILLER_12_27
*988 FILLER_12_277
*989 FILLER_12_289
*990 FILLER_12_29
*991 FILLER_12_3
*992 FILLER_12_301
*993 FILLER_12_307
*994 FILLER_12_309
*995 FILLER_12_321
*996 FILLER_12_333
*997 FILLER_12_345
*998 FILLER_12_357
*999 FILLER_12_363
*1000 FILLER_12_365
*1001 FILLER_12_377
*1002 FILLER_12_389
*1003 FILLER_12_401
*1004 FILLER_12_41
*1005 FILLER_12_413
*1006 FILLER_12_419
*1007 FILLER_12_421
*1008 FILLER_12_433
*1009 FILLER_12_445
*1010 FILLER_12_457
*1011 FILLER_12_469
*1012 FILLER_12_475
*1013 FILLER_12_477
*1014 FILLER_12_489
*1015 FILLER_12_501
*1016 FILLER_12_513
*1017 FILLER_12_525
*1018 FILLER_12_53
*1019 FILLER_12_531
*1020 FILLER_12_533
*1021 FILLER_12_545
*1022 FILLER_12_557
*1023 FILLER_12_569
*1024 FILLER_12_581
*1025 FILLER_12_587
*1026 FILLER_12_589
*1027 FILLER_12_601
*1028 FILLER_12_613
*1029 FILLER_12_625
*1030 FILLER_12_637
*1031 FILLER_12_643
*1032 FILLER_12_645
*1033 FILLER_12_65
*1034 FILLER_12_657
*1035 FILLER_12_665
*1036 FILLER_12_77
*1037 FILLER_12_83
*1038 FILLER_12_85
*1039 FILLER_12_97
*1040 FILLER_13_105
*1041 FILLER_13_111
*1042 FILLER_13_113
*1043 FILLER_13_125
*1044 FILLER_13_137
*1045 FILLER_13_149
*1046 FILLER_13_15
*1047 FILLER_13_161
*1048 FILLER_13_167
*1049 FILLER_13_169
*1050 FILLER_13_181
*1051 FILLER_13_193
*1052 FILLER_13_205
*1053 FILLER_13_217
*1054 FILLER_13_223
*1055 FILLER_13_225
*1056 FILLER_13_237
*1057 FILLER_13_249
*1058 FILLER_13_261
*1059 FILLER_13_27
*1060 FILLER_13_273
*1061 FILLER_13_279
*1062 FILLER_13_281
*1063 FILLER_13_293
*1064 FILLER_13_3
*1065 FILLER_13_305
*1066 FILLER_13_317
*1067 FILLER_13_329
*1068 FILLER_13_335
*1069 FILLER_13_337
*1070 FILLER_13_349
*1071 FILLER_13_361
*1072 FILLER_13_373
*1073 FILLER_13_385
*1074 FILLER_13_39
*1075 FILLER_13_391
*1076 FILLER_13_393
*1077 FILLER_13_405
*1078 FILLER_13_417
*1079 FILLER_13_429
*1080 FILLER_13_441
*1081 FILLER_13_447
*1082 FILLER_13_449
*1083 FILLER_13_461
*1084 FILLER_13_473
*1085 FILLER_13_485
*1086 FILLER_13_497
*1087 FILLER_13_503
*1088 FILLER_13_505
*1089 FILLER_13_51
*1090 FILLER_13_517
*1091 FILLER_13_529
*1092 FILLER_13_541
*1093 FILLER_13_55
*1094 FILLER_13_553
*1095 FILLER_13_559
*1096 FILLER_13_561
*1097 FILLER_13_57
*1098 FILLER_13_573
*1099 FILLER_13_585
*1100 FILLER_13_597
*1101 FILLER_13_609
*1102 FILLER_13_615
*1103 FILLER_13_617
*1104 FILLER_13_629
*1105 FILLER_13_641
*1106 FILLER_13_653
*1107 FILLER_13_665
*1108 FILLER_13_69
*1109 FILLER_13_81
*1110 FILLER_13_93
*1111 FILLER_14_109
*1112 FILLER_14_121
*1113 FILLER_14_133
*1114 FILLER_14_139
*1115 FILLER_14_141
*1116 FILLER_14_15
*1117 FILLER_14_153
*1118 FILLER_14_165
*1119 FILLER_14_177
*1120 FILLER_14_189
*1121 FILLER_14_195
*1122 FILLER_14_197
*1123 FILLER_14_209
*1124 FILLER_14_221
*1125 FILLER_14_233
*1126 FILLER_14_245
*1127 FILLER_14_251
*1128 FILLER_14_253
*1129 FILLER_14_265
*1130 FILLER_14_27
*1131 FILLER_14_277
*1132 FILLER_14_289
*1133 FILLER_14_29
*1134 FILLER_14_3
*1135 FILLER_14_301
*1136 FILLER_14_307
*1137 FILLER_14_309
*1138 FILLER_14_321
*1139 FILLER_14_333
*1140 FILLER_14_345
*1141 FILLER_14_357
*1142 FILLER_14_363
*1143 FILLER_14_365
*1144 FILLER_14_377
*1145 FILLER_14_389
*1146 FILLER_14_401
*1147 FILLER_14_41
*1148 FILLER_14_413
*1149 FILLER_14_419
*1150 FILLER_14_421
*1151 FILLER_14_433
*1152 FILLER_14_445
*1153 FILLER_14_457
*1154 FILLER_14_469
*1155 FILLER_14_475
*1156 FILLER_14_477
*1157 FILLER_14_489
*1158 FILLER_14_501
*1159 FILLER_14_513
*1160 FILLER_14_525
*1161 FILLER_14_53
*1162 FILLER_14_531
*1163 FILLER_14_533
*1164 FILLER_14_545
*1165 FILLER_14_557
*1166 FILLER_14_569
*1167 FILLER_14_581
*1168 FILLER_14_587
*1169 FILLER_14_589
*1170 FILLER_14_601
*1171 FILLER_14_613
*1172 FILLER_14_625
*1173 FILLER_14_637
*1174 FILLER_14_643
*1175 FILLER_14_645
*1176 FILLER_14_65
*1177 FILLER_14_657
*1178 FILLER_14_665
*1179 FILLER_14_77
*1180 FILLER_14_83
*1181 FILLER_14_85
*1182 FILLER_14_97
*1183 FILLER_15_105
*1184 FILLER_15_111
*1185 FILLER_15_113
*1186 FILLER_15_125
*1187 FILLER_15_137
*1188 FILLER_15_149
*1189 FILLER_15_15
*1190 FILLER_15_161
*1191 FILLER_15_167
*1192 FILLER_15_169
*1193 FILLER_15_181
*1194 FILLER_15_193
*1195 FILLER_15_205
*1196 FILLER_15_217
*1197 FILLER_15_223
*1198 FILLER_15_225
*1199 FILLER_15_237
*1200 FILLER_15_249
*1201 FILLER_15_261
*1202 FILLER_15_27
*1203 FILLER_15_273
*1204 FILLER_15_279
*1205 FILLER_15_281
*1206 FILLER_15_293
*1207 FILLER_15_3
*1208 FILLER_15_305
*1209 FILLER_15_317
*1210 FILLER_15_329
*1211 FILLER_15_335
*1212 FILLER_15_337
*1213 FILLER_15_349
*1214 FILLER_15_361
*1215 FILLER_15_373
*1216 FILLER_15_385
*1217 FILLER_15_39
*1218 FILLER_15_391
*1219 FILLER_15_393
*1220 FILLER_15_405
*1221 FILLER_15_417
*1222 FILLER_15_429
*1223 FILLER_15_441
*1224 FILLER_15_447
*1225 FILLER_15_449
*1226 FILLER_15_461
*1227 FILLER_15_473
*1228 FILLER_15_485
*1229 FILLER_15_497
*1230 FILLER_15_503
*1231 FILLER_15_505
*1232 FILLER_15_51
*1233 FILLER_15_517
*1234 FILLER_15_529
*1235 FILLER_15_541
*1236 FILLER_15_55
*1237 FILLER_15_553
*1238 FILLER_15_559
*1239 FILLER_15_561
*1240 FILLER_15_57
*1241 FILLER_15_573
*1242 FILLER_15_585
*1243 FILLER_15_597
*1244 FILLER_15_609
*1245 FILLER_15_615
*1246 FILLER_15_617
*1247 FILLER_15_629
*1248 FILLER_15_641
*1249 FILLER_15_653
*1250 FILLER_15_665
*1251 FILLER_15_69
*1252 FILLER_15_81
*1253 FILLER_15_93
*1254 FILLER_16_109
*1255 FILLER_16_121
*1256 FILLER_16_133
*1257 FILLER_16_139
*1258 FILLER_16_141
*1259 FILLER_16_15
*1260 FILLER_16_153
*1261 FILLER_16_165
*1262 FILLER_16_177
*1263 FILLER_16_189
*1264 FILLER_16_195
*1265 FILLER_16_197
*1266 FILLER_16_209
*1267 FILLER_16_221
*1268 FILLER_16_233
*1269 FILLER_16_245
*1270 FILLER_16_251
*1271 FILLER_16_253
*1272 FILLER_16_265
*1273 FILLER_16_27
*1274 FILLER_16_277
*1275 FILLER_16_289
*1276 FILLER_16_29
*1277 FILLER_16_3
*1278 FILLER_16_301
*1279 FILLER_16_307
*1280 FILLER_16_309
*1281 FILLER_16_321
*1282 FILLER_16_333
*1283 FILLER_16_345
*1284 FILLER_16_357
*1285 FILLER_16_363
*1286 FILLER_16_365
*1287 FILLER_16_377
*1288 FILLER_16_389
*1289 FILLER_16_401
*1290 FILLER_16_41
*1291 FILLER_16_413
*1292 FILLER_16_419
*1293 FILLER_16_421
*1294 FILLER_16_433
*1295 FILLER_16_445
*1296 FILLER_16_457
*1297 FILLER_16_469
*1298 FILLER_16_475
*1299 FILLER_16_477
*1300 FILLER_16_489
*1301 FILLER_16_501
*1302 FILLER_16_513
*1303 FILLER_16_525
*1304 FILLER_16_53
*1305 FILLER_16_531
*1306 FILLER_16_533
*1307 FILLER_16_545
*1308 FILLER_16_557
*1309 FILLER_16_569
*1310 FILLER_16_581
*1311 FILLER_16_587
*1312 FILLER_16_589
*1313 FILLER_16_601
*1314 FILLER_16_613
*1315 FILLER_16_625
*1316 FILLER_16_637
*1317 FILLER_16_643
*1318 FILLER_16_645
*1319 FILLER_16_65
*1320 FILLER_16_657
*1321 FILLER_16_665
*1322 FILLER_16_77
*1323 FILLER_16_83
*1324 FILLER_16_85
*1325 FILLER_16_97
*1326 FILLER_17_105
*1327 FILLER_17_111
*1328 FILLER_17_113
*1329 FILLER_17_125
*1330 FILLER_17_137
*1331 FILLER_17_149
*1332 FILLER_17_15
*1333 FILLER_17_161
*1334 FILLER_17_167
*1335 FILLER_17_169
*1336 FILLER_17_181
*1337 FILLER_17_193
*1338 FILLER_17_205
*1339 FILLER_17_217
*1340 FILLER_17_223
*1341 FILLER_17_225
*1342 FILLER_17_237
*1343 FILLER_17_249
*1344 FILLER_17_261
*1345 FILLER_17_27
*1346 FILLER_17_273
*1347 FILLER_17_279
*1348 FILLER_17_281
*1349 FILLER_17_293
*1350 FILLER_17_3
*1351 FILLER_17_305
*1352 FILLER_17_317
*1353 FILLER_17_329
*1354 FILLER_17_335
*1355 FILLER_17_337
*1356 FILLER_17_349
*1357 FILLER_17_361
*1358 FILLER_17_373
*1359 FILLER_17_385
*1360 FILLER_17_39
*1361 FILLER_17_391
*1362 FILLER_17_393
*1363 FILLER_17_405
*1364 FILLER_17_417
*1365 FILLER_17_429
*1366 FILLER_17_441
*1367 FILLER_17_447
*1368 FILLER_17_449
*1369 FILLER_17_461
*1370 FILLER_17_473
*1371 FILLER_17_485
*1372 FILLER_17_497
*1373 FILLER_17_503
*1374 FILLER_17_505
*1375 FILLER_17_51
*1376 FILLER_17_517
*1377 FILLER_17_529
*1378 FILLER_17_541
*1379 FILLER_17_55
*1380 FILLER_17_553
*1381 FILLER_17_559
*1382 FILLER_17_561
*1383 FILLER_17_57
*1384 FILLER_17_573
*1385 FILLER_17_585
*1386 FILLER_17_597
*1387 FILLER_17_609
*1388 FILLER_17_615
*1389 FILLER_17_617
*1390 FILLER_17_629
*1391 FILLER_17_641
*1392 FILLER_17_653
*1393 FILLER_17_665
*1394 FILLER_17_69
*1395 FILLER_17_81
*1396 FILLER_17_93
*1397 FILLER_18_109
*1398 FILLER_18_121
*1399 FILLER_18_133
*1400 FILLER_18_139
*1401 FILLER_18_141
*1402 FILLER_18_15
*1403 FILLER_18_153
*1404 FILLER_18_165
*1405 FILLER_18_177
*1406 FILLER_18_189
*1407 FILLER_18_195
*1408 FILLER_18_197
*1409 FILLER_18_209
*1410 FILLER_18_221
*1411 FILLER_18_233
*1412 FILLER_18_245
*1413 FILLER_18_251
*1414 FILLER_18_253
*1415 FILLER_18_265
*1416 FILLER_18_27
*1417 FILLER_18_277
*1418 FILLER_18_289
*1419 FILLER_18_29
*1420 FILLER_18_3
*1421 FILLER_18_301
*1422 FILLER_18_307
*1423 FILLER_18_309
*1424 FILLER_18_321
*1425 FILLER_18_333
*1426 FILLER_18_345
*1427 FILLER_18_357
*1428 FILLER_18_363
*1429 FILLER_18_365
*1430 FILLER_18_377
*1431 FILLER_18_389
*1432 FILLER_18_401
*1433 FILLER_18_41
*1434 FILLER_18_413
*1435 FILLER_18_419
*1436 FILLER_18_421
*1437 FILLER_18_433
*1438 FILLER_18_445
*1439 FILLER_18_457
*1440 FILLER_18_469
*1441 FILLER_18_475
*1442 FILLER_18_477
*1443 FILLER_18_489
*1444 FILLER_18_501
*1445 FILLER_18_513
*1446 FILLER_18_525
*1447 FILLER_18_53
*1448 FILLER_18_531
*1449 FILLER_18_533
*1450 FILLER_18_545
*1451 FILLER_18_557
*1452 FILLER_18_569
*1453 FILLER_18_581
*1454 FILLER_18_587
*1455 FILLER_18_589
*1456 FILLER_18_601
*1457 FILLER_18_613
*1458 FILLER_18_625
*1459 FILLER_18_637
*1460 FILLER_18_643
*1461 FILLER_18_645
*1462 FILLER_18_65
*1463 FILLER_18_657
*1464 FILLER_18_665
*1465 FILLER_18_77
*1466 FILLER_18_83
*1467 FILLER_18_85
*1468 FILLER_18_97
*1469 FILLER_19_105
*1470 FILLER_19_111
*1471 FILLER_19_113
*1472 FILLER_19_125
*1473 FILLER_19_137
*1474 FILLER_19_149
*1475 FILLER_19_15
*1476 FILLER_19_161
*1477 FILLER_19_167
*1478 FILLER_19_169
*1479 FILLER_19_181
*1480 FILLER_19_193
*1481 FILLER_19_205
*1482 FILLER_19_217
*1483 FILLER_19_223
*1484 FILLER_19_225
*1485 FILLER_19_237
*1486 FILLER_19_249
*1487 FILLER_19_261
*1488 FILLER_19_27
*1489 FILLER_19_273
*1490 FILLER_19_279
*1491 FILLER_19_281
*1492 FILLER_19_293
*1493 FILLER_19_3
*1494 FILLER_19_305
*1495 FILLER_19_317
*1496 FILLER_19_329
*1497 FILLER_19_335
*1498 FILLER_19_337
*1499 FILLER_19_349
*1500 FILLER_19_361
*1501 FILLER_19_373
*1502 FILLER_19_385
*1503 FILLER_19_39
*1504 FILLER_19_391
*1505 FILLER_19_393
*1506 FILLER_19_405
*1507 FILLER_19_417
*1508 FILLER_19_429
*1509 FILLER_19_441
*1510 FILLER_19_447
*1511 FILLER_19_449
*1512 FILLER_19_461
*1513 FILLER_19_473
*1514 FILLER_19_485
*1515 FILLER_19_497
*1516 FILLER_19_503
*1517 FILLER_19_505
*1518 FILLER_19_51
*1519 FILLER_19_517
*1520 FILLER_19_529
*1521 FILLER_19_541
*1522 FILLER_19_55
*1523 FILLER_19_553
*1524 FILLER_19_559
*1525 FILLER_19_561
*1526 FILLER_19_57
*1527 FILLER_19_573
*1528 FILLER_19_585
*1529 FILLER_19_597
*1530 FILLER_19_609
*1531 FILLER_19_615
*1532 FILLER_19_617
*1533 FILLER_19_629
*1534 FILLER_19_641
*1535 FILLER_19_653
*1536 FILLER_19_665
*1537 FILLER_19_69
*1538 FILLER_19_81
*1539 FILLER_19_93
*1540 FILLER_1_105
*1541 FILLER_1_111
*1542 FILLER_1_113
*1543 FILLER_1_125
*1544 FILLER_1_137
*1545 FILLER_1_149
*1546 FILLER_1_15
*1547 FILLER_1_161
*1548 FILLER_1_167
*1549 FILLER_1_169
*1550 FILLER_1_181
*1551 FILLER_1_193
*1552 FILLER_1_205
*1553 FILLER_1_217
*1554 FILLER_1_223
*1555 FILLER_1_225
*1556 FILLER_1_237
*1557 FILLER_1_249
*1558 FILLER_1_261
*1559 FILLER_1_27
*1560 FILLER_1_273
*1561 FILLER_1_279
*1562 FILLER_1_281
*1563 FILLER_1_293
*1564 FILLER_1_3
*1565 FILLER_1_305
*1566 FILLER_1_317
*1567 FILLER_1_329
*1568 FILLER_1_335
*1569 FILLER_1_337
*1570 FILLER_1_349
*1571 FILLER_1_361
*1572 FILLER_1_373
*1573 FILLER_1_385
*1574 FILLER_1_39
*1575 FILLER_1_391
*1576 FILLER_1_393
*1577 FILLER_1_405
*1578 FILLER_1_417
*1579 FILLER_1_429
*1580 FILLER_1_441
*1581 FILLER_1_447
*1582 FILLER_1_449
*1583 FILLER_1_461
*1584 FILLER_1_473
*1585 FILLER_1_485
*1586 FILLER_1_497
*1587 FILLER_1_503
*1588 FILLER_1_505
*1589 FILLER_1_51
*1590 FILLER_1_517
*1591 FILLER_1_529
*1592 FILLER_1_541
*1593 FILLER_1_55
*1594 FILLER_1_553
*1595 FILLER_1_559
*1596 FILLER_1_561
*1597 FILLER_1_57
*1598 FILLER_1_573
*1599 FILLER_1_585
*1600 FILLER_1_597
*1601 FILLER_1_609
*1602 FILLER_1_615
*1603 FILLER_1_617
*1604 FILLER_1_629
*1605 FILLER_1_641
*1606 FILLER_1_653
*1607 FILLER_1_665
*1608 FILLER_1_69
*1609 FILLER_1_81
*1610 FILLER_1_93
*1611 FILLER_20_109
*1612 FILLER_20_121
*1613 FILLER_20_133
*1614 FILLER_20_139
*1615 FILLER_20_141
*1616 FILLER_20_15
*1617 FILLER_20_153
*1618 FILLER_20_165
*1619 FILLER_20_177
*1620 FILLER_20_189
*1621 FILLER_20_195
*1622 FILLER_20_197
*1623 FILLER_20_209
*1624 FILLER_20_221
*1625 FILLER_20_233
*1626 FILLER_20_245
*1627 FILLER_20_251
*1628 FILLER_20_253
*1629 FILLER_20_265
*1630 FILLER_20_27
*1631 FILLER_20_277
*1632 FILLER_20_289
*1633 FILLER_20_29
*1634 FILLER_20_3
*1635 FILLER_20_301
*1636 FILLER_20_307
*1637 FILLER_20_309
*1638 FILLER_20_321
*1639 FILLER_20_333
*1640 FILLER_20_345
*1641 FILLER_20_357
*1642 FILLER_20_363
*1643 FILLER_20_365
*1644 FILLER_20_377
*1645 FILLER_20_389
*1646 FILLER_20_401
*1647 FILLER_20_41
*1648 FILLER_20_413
*1649 FILLER_20_419
*1650 FILLER_20_421
*1651 FILLER_20_433
*1652 FILLER_20_445
*1653 FILLER_20_457
*1654 FILLER_20_469
*1655 FILLER_20_475
*1656 FILLER_20_477
*1657 FILLER_20_489
*1658 FILLER_20_501
*1659 FILLER_20_513
*1660 FILLER_20_525
*1661 FILLER_20_53
*1662 FILLER_20_531
*1663 FILLER_20_533
*1664 FILLER_20_545
*1665 FILLER_20_557
*1666 FILLER_20_569
*1667 FILLER_20_581
*1668 FILLER_20_587
*1669 FILLER_20_589
*1670 FILLER_20_601
*1671 FILLER_20_613
*1672 FILLER_20_625
*1673 FILLER_20_637
*1674 FILLER_20_643
*1675 FILLER_20_645
*1676 FILLER_20_65
*1677 FILLER_20_657
*1678 FILLER_20_665
*1679 FILLER_20_77
*1680 FILLER_20_83
*1681 FILLER_20_85
*1682 FILLER_20_97
*1683 FILLER_21_105
*1684 FILLER_21_111
*1685 FILLER_21_113
*1686 FILLER_21_125
*1687 FILLER_21_137
*1688 FILLER_21_149
*1689 FILLER_21_15
*1690 FILLER_21_161
*1691 FILLER_21_167
*1692 FILLER_21_169
*1693 FILLER_21_181
*1694 FILLER_21_193
*1695 FILLER_21_205
*1696 FILLER_21_217
*1697 FILLER_21_223
*1698 FILLER_21_225
*1699 FILLER_21_237
*1700 FILLER_21_249
*1701 FILLER_21_261
*1702 FILLER_21_27
*1703 FILLER_21_273
*1704 FILLER_21_279
*1705 FILLER_21_281
*1706 FILLER_21_293
*1707 FILLER_21_3
*1708 FILLER_21_305
*1709 FILLER_21_317
*1710 FILLER_21_329
*1711 FILLER_21_335
*1712 FILLER_21_337
*1713 FILLER_21_349
*1714 FILLER_21_361
*1715 FILLER_21_373
*1716 FILLER_21_385
*1717 FILLER_21_39
*1718 FILLER_21_391
*1719 FILLER_21_393
*1720 FILLER_21_405
*1721 FILLER_21_417
*1722 FILLER_21_429
*1723 FILLER_21_441
*1724 FILLER_21_447
*1725 FILLER_21_449
*1726 FILLER_21_461
*1727 FILLER_21_473
*1728 FILLER_21_485
*1729 FILLER_21_497
*1730 FILLER_21_503
*1731 FILLER_21_505
*1732 FILLER_21_51
*1733 FILLER_21_517
*1734 FILLER_21_529
*1735 FILLER_21_541
*1736 FILLER_21_55
*1737 FILLER_21_553
*1738 FILLER_21_559
*1739 FILLER_21_561
*1740 FILLER_21_57
*1741 FILLER_21_573
*1742 FILLER_21_585
*1743 FILLER_21_597
*1744 FILLER_21_609
*1745 FILLER_21_615
*1746 FILLER_21_617
*1747 FILLER_21_629
*1748 FILLER_21_641
*1749 FILLER_21_653
*1750 FILLER_21_665
*1751 FILLER_21_69
*1752 FILLER_21_81
*1753 FILLER_21_93
*1754 FILLER_22_109
*1755 FILLER_22_121
*1756 FILLER_22_133
*1757 FILLER_22_139
*1758 FILLER_22_141
*1759 FILLER_22_15
*1760 FILLER_22_153
*1761 FILLER_22_165
*1762 FILLER_22_177
*1763 FILLER_22_189
*1764 FILLER_22_195
*1765 FILLER_22_197
*1766 FILLER_22_209
*1767 FILLER_22_221
*1768 FILLER_22_233
*1769 FILLER_22_245
*1770 FILLER_22_251
*1771 FILLER_22_253
*1772 FILLER_22_265
*1773 FILLER_22_27
*1774 FILLER_22_277
*1775 FILLER_22_289
*1776 FILLER_22_29
*1777 FILLER_22_3
*1778 FILLER_22_301
*1779 FILLER_22_307
*1780 FILLER_22_309
*1781 FILLER_22_321
*1782 FILLER_22_333
*1783 FILLER_22_345
*1784 FILLER_22_357
*1785 FILLER_22_363
*1786 FILLER_22_365
*1787 FILLER_22_377
*1788 FILLER_22_389
*1789 FILLER_22_401
*1790 FILLER_22_41
*1791 FILLER_22_413
*1792 FILLER_22_419
*1793 FILLER_22_421
*1794 FILLER_22_433
*1795 FILLER_22_445
*1796 FILLER_22_457
*1797 FILLER_22_469
*1798 FILLER_22_475
*1799 FILLER_22_477
*1800 FILLER_22_489
*1801 FILLER_22_501
*1802 FILLER_22_513
*1803 FILLER_22_525
*1804 FILLER_22_53
*1805 FILLER_22_531
*1806 FILLER_22_533
*1807 FILLER_22_545
*1808 FILLER_22_557
*1809 FILLER_22_569
*1810 FILLER_22_581
*1811 FILLER_22_587
*1812 FILLER_22_589
*1813 FILLER_22_601
*1814 FILLER_22_613
*1815 FILLER_22_625
*1816 FILLER_22_637
*1817 FILLER_22_643
*1818 FILLER_22_645
*1819 FILLER_22_65
*1820 FILLER_22_657
*1821 FILLER_22_665
*1822 FILLER_22_77
*1823 FILLER_22_83
*1824 FILLER_22_85
*1825 FILLER_22_97
*1826 FILLER_23_105
*1827 FILLER_23_111
*1828 FILLER_23_113
*1829 FILLER_23_125
*1830 FILLER_23_137
*1831 FILLER_23_149
*1832 FILLER_23_15
*1833 FILLER_23_161
*1834 FILLER_23_167
*1835 FILLER_23_169
*1836 FILLER_23_181
*1837 FILLER_23_193
*1838 FILLER_23_205
*1839 FILLER_23_217
*1840 FILLER_23_223
*1841 FILLER_23_225
*1842 FILLER_23_237
*1843 FILLER_23_249
*1844 FILLER_23_261
*1845 FILLER_23_27
*1846 FILLER_23_273
*1847 FILLER_23_279
*1848 FILLER_23_281
*1849 FILLER_23_293
*1850 FILLER_23_3
*1851 FILLER_23_305
*1852 FILLER_23_317
*1853 FILLER_23_329
*1854 FILLER_23_335
*1855 FILLER_23_337
*1856 FILLER_23_349
*1857 FILLER_23_361
*1858 FILLER_23_373
*1859 FILLER_23_385
*1860 FILLER_23_39
*1861 FILLER_23_391
*1862 FILLER_23_393
*1863 FILLER_23_405
*1864 FILLER_23_417
*1865 FILLER_23_429
*1866 FILLER_23_441
*1867 FILLER_23_447
*1868 FILLER_23_449
*1869 FILLER_23_461
*1870 FILLER_23_473
*1871 FILLER_23_485
*1872 FILLER_23_497
*1873 FILLER_23_503
*1874 FILLER_23_505
*1875 FILLER_23_51
*1876 FILLER_23_517
*1877 FILLER_23_529
*1878 FILLER_23_541
*1879 FILLER_23_55
*1880 FILLER_23_553
*1881 FILLER_23_559
*1882 FILLER_23_561
*1883 FILLER_23_57
*1884 FILLER_23_573
*1885 FILLER_23_585
*1886 FILLER_23_597
*1887 FILLER_23_609
*1888 FILLER_23_615
*1889 FILLER_23_617
*1890 FILLER_23_629
*1891 FILLER_23_641
*1892 FILLER_23_653
*1893 FILLER_23_665
*1894 FILLER_23_69
*1895 FILLER_23_81
*1896 FILLER_23_93
*1897 FILLER_24_109
*1898 FILLER_24_121
*1899 FILLER_24_133
*1900 FILLER_24_139
*1901 FILLER_24_141
*1902 FILLER_24_15
*1903 FILLER_24_153
*1904 FILLER_24_165
*1905 FILLER_24_177
*1906 FILLER_24_189
*1907 FILLER_24_195
*1908 FILLER_24_197
*1909 FILLER_24_209
*1910 FILLER_24_221
*1911 FILLER_24_233
*1912 FILLER_24_245
*1913 FILLER_24_251
*1914 FILLER_24_253
*1915 FILLER_24_265
*1916 FILLER_24_27
*1917 FILLER_24_277
*1918 FILLER_24_289
*1919 FILLER_24_29
*1920 FILLER_24_3
*1921 FILLER_24_301
*1922 FILLER_24_307
*1923 FILLER_24_309
*1924 FILLER_24_321
*1925 FILLER_24_333
*1926 FILLER_24_345
*1927 FILLER_24_357
*1928 FILLER_24_363
*1929 FILLER_24_365
*1930 FILLER_24_377
*1931 FILLER_24_389
*1932 FILLER_24_401
*1933 FILLER_24_41
*1934 FILLER_24_413
*1935 FILLER_24_419
*1936 FILLER_24_421
*1937 FILLER_24_433
*1938 FILLER_24_445
*1939 FILLER_24_457
*1940 FILLER_24_469
*1941 FILLER_24_475
*1942 FILLER_24_477
*1943 FILLER_24_489
*1944 FILLER_24_501
*1945 FILLER_24_513
*1946 FILLER_24_525
*1947 FILLER_24_53
*1948 FILLER_24_531
*1949 FILLER_24_533
*1950 FILLER_24_545
*1951 FILLER_24_557
*1952 FILLER_24_569
*1953 FILLER_24_581
*1954 FILLER_24_587
*1955 FILLER_24_589
*1956 FILLER_24_601
*1957 FILLER_24_613
*1958 FILLER_24_625
*1959 FILLER_24_637
*1960 FILLER_24_643
*1961 FILLER_24_645
*1962 FILLER_24_65
*1963 FILLER_24_657
*1964 FILLER_24_665
*1965 FILLER_24_77
*1966 FILLER_24_83
*1967 FILLER_24_85
*1968 FILLER_24_97
*1969 FILLER_25_105
*1970 FILLER_25_111
*1971 FILLER_25_113
*1972 FILLER_25_125
*1973 FILLER_25_137
*1974 FILLER_25_149
*1975 FILLER_25_15
*1976 FILLER_25_161
*1977 FILLER_25_167
*1978 FILLER_25_169
*1979 FILLER_25_181
*1980 FILLER_25_193
*1981 FILLER_25_205
*1982 FILLER_25_217
*1983 FILLER_25_223
*1984 FILLER_25_225
*1985 FILLER_25_237
*1986 FILLER_25_249
*1987 FILLER_25_261
*1988 FILLER_25_27
*1989 FILLER_25_273
*1990 FILLER_25_279
*1991 FILLER_25_281
*1992 FILLER_25_293
*1993 FILLER_25_3
*1994 FILLER_25_305
*1995 FILLER_25_317
*1996 FILLER_25_329
*1997 FILLER_25_335
*1998 FILLER_25_337
*1999 FILLER_25_349
*2000 FILLER_25_361
*2001 FILLER_25_373
*2002 FILLER_25_385
*2003 FILLER_25_39
*2004 FILLER_25_391
*2005 FILLER_25_393
*2006 FILLER_25_405
*2007 FILLER_25_417
*2008 FILLER_25_429
*2009 FILLER_25_441
*2010 FILLER_25_447
*2011 FILLER_25_449
*2012 FILLER_25_461
*2013 FILLER_25_473
*2014 FILLER_25_485
*2015 FILLER_25_497
*2016 FILLER_25_503
*2017 FILLER_25_505
*2018 FILLER_25_51
*2019 FILLER_25_517
*2020 FILLER_25_529
*2021 FILLER_25_541
*2022 FILLER_25_55
*2023 FILLER_25_553
*2024 FILLER_25_559
*2025 FILLER_25_561
*2026 FILLER_25_57
*2027 FILLER_25_573
*2028 FILLER_25_585
*2029 FILLER_25_597
*2030 FILLER_25_609
*2031 FILLER_25_615
*2032 FILLER_25_617
*2033 FILLER_25_629
*2034 FILLER_25_641
*2035 FILLER_25_653
*2036 FILLER_25_665
*2037 FILLER_25_69
*2038 FILLER_25_81
*2039 FILLER_25_93
*2040 FILLER_26_109
*2041 FILLER_26_121
*2042 FILLER_26_133
*2043 FILLER_26_139
*2044 FILLER_26_141
*2045 FILLER_26_15
*2046 FILLER_26_153
*2047 FILLER_26_165
*2048 FILLER_26_177
*2049 FILLER_26_189
*2050 FILLER_26_195
*2051 FILLER_26_197
*2052 FILLER_26_209
*2053 FILLER_26_221
*2054 FILLER_26_233
*2055 FILLER_26_245
*2056 FILLER_26_251
*2057 FILLER_26_253
*2058 FILLER_26_265
*2059 FILLER_26_27
*2060 FILLER_26_277
*2061 FILLER_26_289
*2062 FILLER_26_29
*2063 FILLER_26_3
*2064 FILLER_26_301
*2065 FILLER_26_307
*2066 FILLER_26_309
*2067 FILLER_26_321
*2068 FILLER_26_333
*2069 FILLER_26_345
*2070 FILLER_26_357
*2071 FILLER_26_363
*2072 FILLER_26_365
*2073 FILLER_26_377
*2074 FILLER_26_389
*2075 FILLER_26_401
*2076 FILLER_26_41
*2077 FILLER_26_413
*2078 FILLER_26_419
*2079 FILLER_26_421
*2080 FILLER_26_433
*2081 FILLER_26_445
*2082 FILLER_26_457
*2083 FILLER_26_469
*2084 FILLER_26_475
*2085 FILLER_26_477
*2086 FILLER_26_489
*2087 FILLER_26_501
*2088 FILLER_26_513
*2089 FILLER_26_525
*2090 FILLER_26_53
*2091 FILLER_26_531
*2092 FILLER_26_533
*2093 FILLER_26_545
*2094 FILLER_26_557
*2095 FILLER_26_569
*2096 FILLER_26_581
*2097 FILLER_26_587
*2098 FILLER_26_589
*2099 FILLER_26_601
*2100 FILLER_26_613
*2101 FILLER_26_625
*2102 FILLER_26_637
*2103 FILLER_26_643
*2104 FILLER_26_645
*2105 FILLER_26_65
*2106 FILLER_26_657
*2107 FILLER_26_665
*2108 FILLER_26_77
*2109 FILLER_26_83
*2110 FILLER_26_85
*2111 FILLER_26_97
*2112 FILLER_27_105
*2113 FILLER_27_111
*2114 FILLER_27_113
*2115 FILLER_27_125
*2116 FILLER_27_137
*2117 FILLER_27_149
*2118 FILLER_27_15
*2119 FILLER_27_161
*2120 FILLER_27_167
*2121 FILLER_27_169
*2122 FILLER_27_181
*2123 FILLER_27_193
*2124 FILLER_27_205
*2125 FILLER_27_217
*2126 FILLER_27_223
*2127 FILLER_27_225
*2128 FILLER_27_237
*2129 FILLER_27_249
*2130 FILLER_27_261
*2131 FILLER_27_27
*2132 FILLER_27_273
*2133 FILLER_27_279
*2134 FILLER_27_281
*2135 FILLER_27_293
*2136 FILLER_27_3
*2137 FILLER_27_305
*2138 FILLER_27_317
*2139 FILLER_27_329
*2140 FILLER_27_335
*2141 FILLER_27_337
*2142 FILLER_27_349
*2143 FILLER_27_361
*2144 FILLER_27_373
*2145 FILLER_27_385
*2146 FILLER_27_39
*2147 FILLER_27_391
*2148 FILLER_27_393
*2149 FILLER_27_405
*2150 FILLER_27_417
*2151 FILLER_27_429
*2152 FILLER_27_441
*2153 FILLER_27_447
*2154 FILLER_27_449
*2155 FILLER_27_461
*2156 FILLER_27_473
*2157 FILLER_27_485
*2158 FILLER_27_497
*2159 FILLER_27_503
*2160 FILLER_27_505
*2161 FILLER_27_51
*2162 FILLER_27_517
*2163 FILLER_27_529
*2164 FILLER_27_541
*2165 FILLER_27_55
*2166 FILLER_27_553
*2167 FILLER_27_559
*2168 FILLER_27_561
*2169 FILLER_27_57
*2170 FILLER_27_573
*2171 FILLER_27_585
*2172 FILLER_27_597
*2173 FILLER_27_609
*2174 FILLER_27_615
*2175 FILLER_27_617
*2176 FILLER_27_629
*2177 FILLER_27_641
*2178 FILLER_27_653
*2179 FILLER_27_665
*2180 FILLER_27_69
*2181 FILLER_27_81
*2182 FILLER_27_93
*2183 FILLER_28_109
*2184 FILLER_28_121
*2185 FILLER_28_133
*2186 FILLER_28_139
*2187 FILLER_28_141
*2188 FILLER_28_15
*2189 FILLER_28_153
*2190 FILLER_28_165
*2191 FILLER_28_177
*2192 FILLER_28_189
*2193 FILLER_28_195
*2194 FILLER_28_197
*2195 FILLER_28_209
*2196 FILLER_28_221
*2197 FILLER_28_233
*2198 FILLER_28_245
*2199 FILLER_28_251
*2200 FILLER_28_253
*2201 FILLER_28_265
*2202 FILLER_28_27
*2203 FILLER_28_277
*2204 FILLER_28_289
*2205 FILLER_28_29
*2206 FILLER_28_3
*2207 FILLER_28_301
*2208 FILLER_28_307
*2209 FILLER_28_309
*2210 FILLER_28_321
*2211 FILLER_28_333
*2212 FILLER_28_345
*2213 FILLER_28_357
*2214 FILLER_28_363
*2215 FILLER_28_365
*2216 FILLER_28_377
*2217 FILLER_28_389
*2218 FILLER_28_401
*2219 FILLER_28_41
*2220 FILLER_28_413
*2221 FILLER_28_419
*2222 FILLER_28_421
*2223 FILLER_28_433
*2224 FILLER_28_445
*2225 FILLER_28_457
*2226 FILLER_28_469
*2227 FILLER_28_475
*2228 FILLER_28_477
*2229 FILLER_28_489
*2230 FILLER_28_501
*2231 FILLER_28_513
*2232 FILLER_28_525
*2233 FILLER_28_53
*2234 FILLER_28_531
*2235 FILLER_28_533
*2236 FILLER_28_545
*2237 FILLER_28_557
*2238 FILLER_28_569
*2239 FILLER_28_581
*2240 FILLER_28_587
*2241 FILLER_28_589
*2242 FILLER_28_601
*2243 FILLER_28_613
*2244 FILLER_28_625
*2245 FILLER_28_637
*2246 FILLER_28_643
*2247 FILLER_28_645
*2248 FILLER_28_65
*2249 FILLER_28_657
*2250 FILLER_28_665
*2251 FILLER_28_77
*2252 FILLER_28_83
*2253 FILLER_28_85
*2254 FILLER_28_97
*2255 FILLER_29_105
*2256 FILLER_29_111
*2257 FILLER_29_113
*2258 FILLER_29_125
*2259 FILLER_29_137
*2260 FILLER_29_149
*2261 FILLER_29_15
*2262 FILLER_29_161
*2263 FILLER_29_167
*2264 FILLER_29_169
*2265 FILLER_29_181
*2266 FILLER_29_193
*2267 FILLER_29_205
*2268 FILLER_29_217
*2269 FILLER_29_223
*2270 FILLER_29_225
*2271 FILLER_29_237
*2272 FILLER_29_249
*2273 FILLER_29_261
*2274 FILLER_29_27
*2275 FILLER_29_273
*2276 FILLER_29_279
*2277 FILLER_29_281
*2278 FILLER_29_293
*2279 FILLER_29_3
*2280 FILLER_29_305
*2281 FILLER_29_317
*2282 FILLER_29_329
*2283 FILLER_29_335
*2284 FILLER_29_337
*2285 FILLER_29_349
*2286 FILLER_29_361
*2287 FILLER_29_373
*2288 FILLER_29_385
*2289 FILLER_29_39
*2290 FILLER_29_391
*2291 FILLER_29_393
*2292 FILLER_29_405
*2293 FILLER_29_417
*2294 FILLER_29_429
*2295 FILLER_29_441
*2296 FILLER_29_447
*2297 FILLER_29_449
*2298 FILLER_29_461
*2299 FILLER_29_473
*2300 FILLER_29_485
*2301 FILLER_29_497
*2302 FILLER_29_503
*2303 FILLER_29_505
*2304 FILLER_29_51
*2305 FILLER_29_517
*2306 FILLER_29_529
*2307 FILLER_29_541
*2308 FILLER_29_55
*2309 FILLER_29_553
*2310 FILLER_29_559
*2311 FILLER_29_561
*2312 FILLER_29_57
*2313 FILLER_29_573
*2314 FILLER_29_585
*2315 FILLER_29_597
*2316 FILLER_29_609
*2317 FILLER_29_615
*2318 FILLER_29_617
*2319 FILLER_29_629
*2320 FILLER_29_641
*2321 FILLER_29_653
*2322 FILLER_29_665
*2323 FILLER_29_69
*2324 FILLER_29_81
*2325 FILLER_29_93
*2326 FILLER_2_109
*2327 FILLER_2_121
*2328 FILLER_2_133
*2329 FILLER_2_139
*2330 FILLER_2_141
*2331 FILLER_2_15
*2332 FILLER_2_153
*2333 FILLER_2_165
*2334 FILLER_2_177
*2335 FILLER_2_189
*2336 FILLER_2_195
*2337 FILLER_2_197
*2338 FILLER_2_209
*2339 FILLER_2_221
*2340 FILLER_2_233
*2341 FILLER_2_245
*2342 FILLER_2_251
*2343 FILLER_2_253
*2344 FILLER_2_265
*2345 FILLER_2_27
*2346 FILLER_2_277
*2347 FILLER_2_289
*2348 FILLER_2_29
*2349 FILLER_2_3
*2350 FILLER_2_301
*2351 FILLER_2_307
*2352 FILLER_2_309
*2353 FILLER_2_321
*2354 FILLER_2_333
*2355 FILLER_2_345
*2356 FILLER_2_357
*2357 FILLER_2_363
*2358 FILLER_2_365
*2359 FILLER_2_377
*2360 FILLER_2_389
*2361 FILLER_2_401
*2362 FILLER_2_41
*2363 FILLER_2_413
*2364 FILLER_2_419
*2365 FILLER_2_421
*2366 FILLER_2_433
*2367 FILLER_2_445
*2368 FILLER_2_457
*2369 FILLER_2_469
*2370 FILLER_2_475
*2371 FILLER_2_477
*2372 FILLER_2_489
*2373 FILLER_2_501
*2374 FILLER_2_513
*2375 FILLER_2_525
*2376 FILLER_2_53
*2377 FILLER_2_531
*2378 FILLER_2_533
*2379 FILLER_2_545
*2380 FILLER_2_557
*2381 FILLER_2_569
*2382 FILLER_2_581
*2383 FILLER_2_587
*2384 FILLER_2_589
*2385 FILLER_2_601
*2386 FILLER_2_613
*2387 FILLER_2_625
*2388 FILLER_2_637
*2389 FILLER_2_643
*2390 FILLER_2_645
*2391 FILLER_2_65
*2392 FILLER_2_657
*2393 FILLER_2_665
*2394 FILLER_2_77
*2395 FILLER_2_83
*2396 FILLER_2_85
*2397 FILLER_2_97
*2398 FILLER_30_109
*2399 FILLER_30_121
*2400 FILLER_30_133
*2401 FILLER_30_139
*2402 FILLER_30_141
*2403 FILLER_30_15
*2404 FILLER_30_153
*2405 FILLER_30_165
*2406 FILLER_30_177
*2407 FILLER_30_189
*2408 FILLER_30_195
*2409 FILLER_30_197
*2410 FILLER_30_209
*2411 FILLER_30_221
*2412 FILLER_30_233
*2413 FILLER_30_245
*2414 FILLER_30_251
*2415 FILLER_30_253
*2416 FILLER_30_265
*2417 FILLER_30_27
*2418 FILLER_30_277
*2419 FILLER_30_289
*2420 FILLER_30_29
*2421 FILLER_30_3
*2422 FILLER_30_301
*2423 FILLER_30_307
*2424 FILLER_30_309
*2425 FILLER_30_321
*2426 FILLER_30_333
*2427 FILLER_30_345
*2428 FILLER_30_357
*2429 FILLER_30_363
*2430 FILLER_30_365
*2431 FILLER_30_377
*2432 FILLER_30_389
*2433 FILLER_30_401
*2434 FILLER_30_41
*2435 FILLER_30_413
*2436 FILLER_30_419
*2437 FILLER_30_421
*2438 FILLER_30_433
*2439 FILLER_30_445
*2440 FILLER_30_457
*2441 FILLER_30_469
*2442 FILLER_30_475
*2443 FILLER_30_477
*2444 FILLER_30_489
*2445 FILLER_30_501
*2446 FILLER_30_513
*2447 FILLER_30_525
*2448 FILLER_30_53
*2449 FILLER_30_531
*2450 FILLER_30_533
*2451 FILLER_30_545
*2452 FILLER_30_557
*2453 FILLER_30_569
*2454 FILLER_30_581
*2455 FILLER_30_587
*2456 FILLER_30_589
*2457 FILLER_30_601
*2458 FILLER_30_613
*2459 FILLER_30_625
*2460 FILLER_30_637
*2461 FILLER_30_643
*2462 FILLER_30_645
*2463 FILLER_30_65
*2464 FILLER_30_657
*2465 FILLER_30_665
*2466 FILLER_30_77
*2467 FILLER_30_83
*2468 FILLER_30_85
*2469 FILLER_30_97
*2470 FILLER_31_105
*2471 FILLER_31_111
*2472 FILLER_31_113
*2473 FILLER_31_125
*2474 FILLER_31_137
*2475 FILLER_31_149
*2476 FILLER_31_15
*2477 FILLER_31_161
*2478 FILLER_31_167
*2479 FILLER_31_169
*2480 FILLER_31_181
*2481 FILLER_31_193
*2482 FILLER_31_205
*2483 FILLER_31_217
*2484 FILLER_31_223
*2485 FILLER_31_225
*2486 FILLER_31_237
*2487 FILLER_31_249
*2488 FILLER_31_261
*2489 FILLER_31_27
*2490 FILLER_31_273
*2491 FILLER_31_279
*2492 FILLER_31_281
*2493 FILLER_31_293
*2494 FILLER_31_3
*2495 FILLER_31_305
*2496 FILLER_31_317
*2497 FILLER_31_329
*2498 FILLER_31_335
*2499 FILLER_31_337
*2500 FILLER_31_349
*2501 FILLER_31_361
*2502 FILLER_31_373
*2503 FILLER_31_385
*2504 FILLER_31_39
*2505 FILLER_31_391
*2506 FILLER_31_393
*2507 FILLER_31_405
*2508 FILLER_31_417
*2509 FILLER_31_429
*2510 FILLER_31_441
*2511 FILLER_31_447
*2512 FILLER_31_449
*2513 FILLER_31_461
*2514 FILLER_31_473
*2515 FILLER_31_485
*2516 FILLER_31_497
*2517 FILLER_31_503
*2518 FILLER_31_505
*2519 FILLER_31_51
*2520 FILLER_31_517
*2521 FILLER_31_529
*2522 FILLER_31_541
*2523 FILLER_31_55
*2524 FILLER_31_553
*2525 FILLER_31_559
*2526 FILLER_31_561
*2527 FILLER_31_57
*2528 FILLER_31_573
*2529 FILLER_31_585
*2530 FILLER_31_597
*2531 FILLER_31_609
*2532 FILLER_31_615
*2533 FILLER_31_617
*2534 FILLER_31_629
*2535 FILLER_31_641
*2536 FILLER_31_653
*2537 FILLER_31_665
*2538 FILLER_31_69
*2539 FILLER_31_81
*2540 FILLER_31_93
*2541 FILLER_32_109
*2542 FILLER_32_121
*2543 FILLER_32_133
*2544 FILLER_32_139
*2545 FILLER_32_141
*2546 FILLER_32_15
*2547 FILLER_32_153
*2548 FILLER_32_165
*2549 FILLER_32_177
*2550 FILLER_32_189
*2551 FILLER_32_195
*2552 FILLER_32_197
*2553 FILLER_32_209
*2554 FILLER_32_221
*2555 FILLER_32_233
*2556 FILLER_32_245
*2557 FILLER_32_251
*2558 FILLER_32_253
*2559 FILLER_32_265
*2560 FILLER_32_27
*2561 FILLER_32_277
*2562 FILLER_32_289
*2563 FILLER_32_29
*2564 FILLER_32_3
*2565 FILLER_32_301
*2566 FILLER_32_307
*2567 FILLER_32_309
*2568 FILLER_32_321
*2569 FILLER_32_333
*2570 FILLER_32_345
*2571 FILLER_32_357
*2572 FILLER_32_363
*2573 FILLER_32_365
*2574 FILLER_32_377
*2575 FILLER_32_389
*2576 FILLER_32_401
*2577 FILLER_32_41
*2578 FILLER_32_413
*2579 FILLER_32_419
*2580 FILLER_32_421
*2581 FILLER_32_433
*2582 FILLER_32_445
*2583 FILLER_32_457
*2584 FILLER_32_469
*2585 FILLER_32_475
*2586 FILLER_32_477
*2587 FILLER_32_489
*2588 FILLER_32_501
*2589 FILLER_32_513
*2590 FILLER_32_525
*2591 FILLER_32_53
*2592 FILLER_32_531
*2593 FILLER_32_533
*2594 FILLER_32_545
*2595 FILLER_32_557
*2596 FILLER_32_569
*2597 FILLER_32_581
*2598 FILLER_32_587
*2599 FILLER_32_589
*2600 FILLER_32_601
*2601 FILLER_32_613
*2602 FILLER_32_625
*2603 FILLER_32_637
*2604 FILLER_32_643
*2605 FILLER_32_645
*2606 FILLER_32_65
*2607 FILLER_32_657
*2608 FILLER_32_665
*2609 FILLER_32_77
*2610 FILLER_32_83
*2611 FILLER_32_85
*2612 FILLER_32_97
*2613 FILLER_33_105
*2614 FILLER_33_111
*2615 FILLER_33_113
*2616 FILLER_33_125
*2617 FILLER_33_137
*2618 FILLER_33_149
*2619 FILLER_33_15
*2620 FILLER_33_161
*2621 FILLER_33_167
*2622 FILLER_33_169
*2623 FILLER_33_181
*2624 FILLER_33_193
*2625 FILLER_33_205
*2626 FILLER_33_217
*2627 FILLER_33_223
*2628 FILLER_33_225
*2629 FILLER_33_237
*2630 FILLER_33_249
*2631 FILLER_33_261
*2632 FILLER_33_27
*2633 FILLER_33_273
*2634 FILLER_33_279
*2635 FILLER_33_281
*2636 FILLER_33_293
*2637 FILLER_33_3
*2638 FILLER_33_305
*2639 FILLER_33_317
*2640 FILLER_33_329
*2641 FILLER_33_335
*2642 FILLER_33_337
*2643 FILLER_33_349
*2644 FILLER_33_361
*2645 FILLER_33_373
*2646 FILLER_33_385
*2647 FILLER_33_39
*2648 FILLER_33_391
*2649 FILLER_33_393
*2650 FILLER_33_405
*2651 FILLER_33_417
*2652 FILLER_33_429
*2653 FILLER_33_441
*2654 FILLER_33_447
*2655 FILLER_33_449
*2656 FILLER_33_461
*2657 FILLER_33_473
*2658 FILLER_33_485
*2659 FILLER_33_497
*2660 FILLER_33_503
*2661 FILLER_33_505
*2662 FILLER_33_51
*2663 FILLER_33_517
*2664 FILLER_33_529
*2665 FILLER_33_541
*2666 FILLER_33_55
*2667 FILLER_33_553
*2668 FILLER_33_559
*2669 FILLER_33_561
*2670 FILLER_33_57
*2671 FILLER_33_573
*2672 FILLER_33_585
*2673 FILLER_33_597
*2674 FILLER_33_609
*2675 FILLER_33_615
*2676 FILLER_33_617
*2677 FILLER_33_629
*2678 FILLER_33_641
*2679 FILLER_33_653
*2680 FILLER_33_665
*2681 FILLER_33_69
*2682 FILLER_33_81
*2683 FILLER_33_93
*2684 FILLER_34_109
*2685 FILLER_34_121
*2686 FILLER_34_133
*2687 FILLER_34_139
*2688 FILLER_34_141
*2689 FILLER_34_15
*2690 FILLER_34_153
*2691 FILLER_34_165
*2692 FILLER_34_177
*2693 FILLER_34_189
*2694 FILLER_34_195
*2695 FILLER_34_197
*2696 FILLER_34_209
*2697 FILLER_34_221
*2698 FILLER_34_233
*2699 FILLER_34_245
*2700 FILLER_34_251
*2701 FILLER_34_253
*2702 FILLER_34_265
*2703 FILLER_34_27
*2704 FILLER_34_277
*2705 FILLER_34_289
*2706 FILLER_34_29
*2707 FILLER_34_3
*2708 FILLER_34_301
*2709 FILLER_34_307
*2710 FILLER_34_309
*2711 FILLER_34_321
*2712 FILLER_34_333
*2713 FILLER_34_345
*2714 FILLER_34_357
*2715 FILLER_34_363
*2716 FILLER_34_365
*2717 FILLER_34_377
*2718 FILLER_34_389
*2719 FILLER_34_401
*2720 FILLER_34_41
*2721 FILLER_34_413
*2722 FILLER_34_419
*2723 FILLER_34_421
*2724 FILLER_34_433
*2725 FILLER_34_445
*2726 FILLER_34_457
*2727 FILLER_34_469
*2728 FILLER_34_475
*2729 FILLER_34_477
*2730 FILLER_34_489
*2731 FILLER_34_501
*2732 FILLER_34_513
*2733 FILLER_34_525
*2734 FILLER_34_53
*2735 FILLER_34_531
*2736 FILLER_34_533
*2737 FILLER_34_545
*2738 FILLER_34_557
*2739 FILLER_34_569
*2740 FILLER_34_581
*2741 FILLER_34_587
*2742 FILLER_34_589
*2743 FILLER_34_601
*2744 FILLER_34_613
*2745 FILLER_34_625
*2746 FILLER_34_637
*2747 FILLER_34_643
*2748 FILLER_34_645
*2749 FILLER_34_65
*2750 FILLER_34_657
*2751 FILLER_34_665
*2752 FILLER_34_77
*2753 FILLER_34_83
*2754 FILLER_34_85
*2755 FILLER_34_97
*2756 FILLER_35_105
*2757 FILLER_35_111
*2758 FILLER_35_113
*2759 FILLER_35_125
*2760 FILLER_35_137
*2761 FILLER_35_149
*2762 FILLER_35_15
*2763 FILLER_35_161
*2764 FILLER_35_167
*2765 FILLER_35_169
*2766 FILLER_35_181
*2767 FILLER_35_193
*2768 FILLER_35_205
*2769 FILLER_35_217
*2770 FILLER_35_223
*2771 FILLER_35_225
*2772 FILLER_35_237
*2773 FILLER_35_249
*2774 FILLER_35_261
*2775 FILLER_35_27
*2776 FILLER_35_273
*2777 FILLER_35_279
*2778 FILLER_35_281
*2779 FILLER_35_293
*2780 FILLER_35_3
*2781 FILLER_35_305
*2782 FILLER_35_317
*2783 FILLER_35_329
*2784 FILLER_35_335
*2785 FILLER_35_337
*2786 FILLER_35_349
*2787 FILLER_35_361
*2788 FILLER_35_373
*2789 FILLER_35_385
*2790 FILLER_35_39
*2791 FILLER_35_391
*2792 FILLER_35_393
*2793 FILLER_35_405
*2794 FILLER_35_417
*2795 FILLER_35_429
*2796 FILLER_35_441
*2797 FILLER_35_447
*2798 FILLER_35_449
*2799 FILLER_35_461
*2800 FILLER_35_473
*2801 FILLER_35_485
*2802 FILLER_35_497
*2803 FILLER_35_503
*2804 FILLER_35_505
*2805 FILLER_35_51
*2806 FILLER_35_517
*2807 FILLER_35_529
*2808 FILLER_35_541
*2809 FILLER_35_55
*2810 FILLER_35_553
*2811 FILLER_35_559
*2812 FILLER_35_561
*2813 FILLER_35_57
*2814 FILLER_35_573
*2815 FILLER_35_585
*2816 FILLER_35_597
*2817 FILLER_35_609
*2818 FILLER_35_615
*2819 FILLER_35_617
*2820 FILLER_35_629
*2821 FILLER_35_641
*2822 FILLER_35_653
*2823 FILLER_35_665
*2824 FILLER_35_69
*2825 FILLER_35_81
*2826 FILLER_35_93
*2827 FILLER_36_109
*2828 FILLER_36_121
*2829 FILLER_36_133
*2830 FILLER_36_139
*2831 FILLER_36_141
*2832 FILLER_36_15
*2833 FILLER_36_153
*2834 FILLER_36_165
*2835 FILLER_36_177
*2836 FILLER_36_189
*2837 FILLER_36_195
*2838 FILLER_36_197
*2839 FILLER_36_209
*2840 FILLER_36_221
*2841 FILLER_36_233
*2842 FILLER_36_245
*2843 FILLER_36_251
*2844 FILLER_36_253
*2845 FILLER_36_265
*2846 FILLER_36_27
*2847 FILLER_36_277
*2848 FILLER_36_289
*2849 FILLER_36_29
*2850 FILLER_36_3
*2851 FILLER_36_301
*2852 FILLER_36_307
*2853 FILLER_36_309
*2854 FILLER_36_321
*2855 FILLER_36_333
*2856 FILLER_36_345
*2857 FILLER_36_357
*2858 FILLER_36_363
*2859 FILLER_36_365
*2860 FILLER_36_377
*2861 FILLER_36_389
*2862 FILLER_36_401
*2863 FILLER_36_41
*2864 FILLER_36_413
*2865 FILLER_36_419
*2866 FILLER_36_421
*2867 FILLER_36_433
*2868 FILLER_36_445
*2869 FILLER_36_457
*2870 FILLER_36_469
*2871 FILLER_36_475
*2872 FILLER_36_477
*2873 FILLER_36_489
*2874 FILLER_36_501
*2875 FILLER_36_513
*2876 FILLER_36_525
*2877 FILLER_36_53
*2878 FILLER_36_531
*2879 FILLER_36_533
*2880 FILLER_36_545
*2881 FILLER_36_557
*2882 FILLER_36_569
*2883 FILLER_36_581
*2884 FILLER_36_587
*2885 FILLER_36_589
*2886 FILLER_36_601
*2887 FILLER_36_613
*2888 FILLER_36_625
*2889 FILLER_36_637
*2890 FILLER_36_643
*2891 FILLER_36_645
*2892 FILLER_36_65
*2893 FILLER_36_657
*2894 FILLER_36_665
*2895 FILLER_36_77
*2896 FILLER_36_83
*2897 FILLER_36_85
*2898 FILLER_36_97
*2899 FILLER_37_105
*2900 FILLER_37_111
*2901 FILLER_37_113
*2902 FILLER_37_125
*2903 FILLER_37_137
*2904 FILLER_37_149
*2905 FILLER_37_15
*2906 FILLER_37_161
*2907 FILLER_37_167
*2908 FILLER_37_169
*2909 FILLER_37_181
*2910 FILLER_37_193
*2911 FILLER_37_205
*2912 FILLER_37_217
*2913 FILLER_37_223
*2914 FILLER_37_225
*2915 FILLER_37_237
*2916 FILLER_37_249
*2917 FILLER_37_261
*2918 FILLER_37_27
*2919 FILLER_37_273
*2920 FILLER_37_279
*2921 FILLER_37_281
*2922 FILLER_37_293
*2923 FILLER_37_3
*2924 FILLER_37_305
*2925 FILLER_37_317
*2926 FILLER_37_329
*2927 FILLER_37_335
*2928 FILLER_37_337
*2929 FILLER_37_349
*2930 FILLER_37_361
*2931 FILLER_37_373
*2932 FILLER_37_385
*2933 FILLER_37_39
*2934 FILLER_37_391
*2935 FILLER_37_393
*2936 FILLER_37_405
*2937 FILLER_37_417
*2938 FILLER_37_429
*2939 FILLER_37_441
*2940 FILLER_37_447
*2941 FILLER_37_449
*2942 FILLER_37_461
*2943 FILLER_37_473
*2944 FILLER_37_485
*2945 FILLER_37_497
*2946 FILLER_37_503
*2947 FILLER_37_505
*2948 FILLER_37_51
*2949 FILLER_37_517
*2950 FILLER_37_529
*2951 FILLER_37_541
*2952 FILLER_37_55
*2953 FILLER_37_553
*2954 FILLER_37_559
*2955 FILLER_37_561
*2956 FILLER_37_57
*2957 FILLER_37_573
*2958 FILLER_37_585
*2959 FILLER_37_597
*2960 FILLER_37_609
*2961 FILLER_37_615
*2962 FILLER_37_617
*2963 FILLER_37_629
*2964 FILLER_37_641
*2965 FILLER_37_653
*2966 FILLER_37_665
*2967 FILLER_37_69
*2968 FILLER_37_81
*2969 FILLER_37_93
*2970 FILLER_38_109
*2971 FILLER_38_121
*2972 FILLER_38_133
*2973 FILLER_38_139
*2974 FILLER_38_141
*2975 FILLER_38_15
*2976 FILLER_38_153
*2977 FILLER_38_165
*2978 FILLER_38_177
*2979 FILLER_38_189
*2980 FILLER_38_195
*2981 FILLER_38_197
*2982 FILLER_38_209
*2983 FILLER_38_221
*2984 FILLER_38_233
*2985 FILLER_38_245
*2986 FILLER_38_251
*2987 FILLER_38_253
*2988 FILLER_38_265
*2989 FILLER_38_27
*2990 FILLER_38_277
*2991 FILLER_38_289
*2992 FILLER_38_29
*2993 FILLER_38_3
*2994 FILLER_38_301
*2995 FILLER_38_307
*2996 FILLER_38_309
*2997 FILLER_38_321
*2998 FILLER_38_333
*2999 FILLER_38_345
*3000 FILLER_38_357
*3001 FILLER_38_363
*3002 FILLER_38_365
*3003 FILLER_38_377
*3004 FILLER_38_389
*3005 FILLER_38_401
*3006 FILLER_38_41
*3007 FILLER_38_413
*3008 FILLER_38_419
*3009 FILLER_38_421
*3010 FILLER_38_433
*3011 FILLER_38_445
*3012 FILLER_38_457
*3013 FILLER_38_469
*3014 FILLER_38_475
*3015 FILLER_38_477
*3016 FILLER_38_489
*3017 FILLER_38_501
*3018 FILLER_38_513
*3019 FILLER_38_525
*3020 FILLER_38_53
*3021 FILLER_38_531
*3022 FILLER_38_533
*3023 FILLER_38_545
*3024 FILLER_38_557
*3025 FILLER_38_569
*3026 FILLER_38_581
*3027 FILLER_38_587
*3028 FILLER_38_589
*3029 FILLER_38_601
*3030 FILLER_38_613
*3031 FILLER_38_625
*3032 FILLER_38_637
*3033 FILLER_38_643
*3034 FILLER_38_645
*3035 FILLER_38_65
*3036 FILLER_38_657
*3037 FILLER_38_665
*3038 FILLER_38_77
*3039 FILLER_38_83
*3040 FILLER_38_85
*3041 FILLER_38_97
*3042 FILLER_39_105
*3043 FILLER_39_111
*3044 FILLER_39_113
*3045 FILLER_39_125
*3046 FILLER_39_137
*3047 FILLER_39_149
*3048 FILLER_39_15
*3049 FILLER_39_161
*3050 FILLER_39_167
*3051 FILLER_39_169
*3052 FILLER_39_181
*3053 FILLER_39_193
*3054 FILLER_39_205
*3055 FILLER_39_217
*3056 FILLER_39_223
*3057 FILLER_39_225
*3058 FILLER_39_237
*3059 FILLER_39_249
*3060 FILLER_39_261
*3061 FILLER_39_27
*3062 FILLER_39_273
*3063 FILLER_39_279
*3064 FILLER_39_281
*3065 FILLER_39_293
*3066 FILLER_39_3
*3067 FILLER_39_305
*3068 FILLER_39_317
*3069 FILLER_39_329
*3070 FILLER_39_335
*3071 FILLER_39_337
*3072 FILLER_39_349
*3073 FILLER_39_361
*3074 FILLER_39_373
*3075 FILLER_39_385
*3076 FILLER_39_39
*3077 FILLER_39_391
*3078 FILLER_39_393
*3079 FILLER_39_405
*3080 FILLER_39_417
*3081 FILLER_39_429
*3082 FILLER_39_441
*3083 FILLER_39_447
*3084 FILLER_39_449
*3085 FILLER_39_461
*3086 FILLER_39_473
*3087 FILLER_39_485
*3088 FILLER_39_497
*3089 FILLER_39_503
*3090 FILLER_39_505
*3091 FILLER_39_51
*3092 FILLER_39_517
*3093 FILLER_39_529
*3094 FILLER_39_541
*3095 FILLER_39_55
*3096 FILLER_39_553
*3097 FILLER_39_559
*3098 FILLER_39_561
*3099 FILLER_39_57
*3100 FILLER_39_573
*3101 FILLER_39_585
*3102 FILLER_39_597
*3103 FILLER_39_609
*3104 FILLER_39_615
*3105 FILLER_39_617
*3106 FILLER_39_629
*3107 FILLER_39_641
*3108 FILLER_39_653
*3109 FILLER_39_665
*3110 FILLER_39_69
*3111 FILLER_39_81
*3112 FILLER_39_93
*3113 FILLER_3_105
*3114 FILLER_3_111
*3115 FILLER_3_113
*3116 FILLER_3_125
*3117 FILLER_3_137
*3118 FILLER_3_149
*3119 FILLER_3_15
*3120 FILLER_3_161
*3121 FILLER_3_167
*3122 FILLER_3_169
*3123 FILLER_3_181
*3124 FILLER_3_193
*3125 FILLER_3_205
*3126 FILLER_3_217
*3127 FILLER_3_223
*3128 FILLER_3_225
*3129 FILLER_3_237
*3130 FILLER_3_249
*3131 FILLER_3_261
*3132 FILLER_3_27
*3133 FILLER_3_273
*3134 FILLER_3_279
*3135 FILLER_3_281
*3136 FILLER_3_293
*3137 FILLER_3_3
*3138 FILLER_3_305
*3139 FILLER_3_317
*3140 FILLER_3_329
*3141 FILLER_3_335
*3142 FILLER_3_337
*3143 FILLER_3_349
*3144 FILLER_3_361
*3145 FILLER_3_373
*3146 FILLER_3_385
*3147 FILLER_3_39
*3148 FILLER_3_391
*3149 FILLER_3_393
*3150 FILLER_3_405
*3151 FILLER_3_417
*3152 FILLER_3_429
*3153 FILLER_3_441
*3154 FILLER_3_447
*3155 FILLER_3_449
*3156 FILLER_3_461
*3157 FILLER_3_473
*3158 FILLER_3_485
*3159 FILLER_3_497
*3160 FILLER_3_503
*3161 FILLER_3_505
*3162 FILLER_3_51
*3163 FILLER_3_517
*3164 FILLER_3_529
*3165 FILLER_3_541
*3166 FILLER_3_55
*3167 FILLER_3_553
*3168 FILLER_3_559
*3169 FILLER_3_561
*3170 FILLER_3_57
*3171 FILLER_3_573
*3172 FILLER_3_585
*3173 FILLER_3_597
*3174 FILLER_3_609
*3175 FILLER_3_615
*3176 FILLER_3_617
*3177 FILLER_3_629
*3178 FILLER_3_641
*3179 FILLER_3_653
*3180 FILLER_3_665
*3181 FILLER_3_69
*3182 FILLER_3_81
*3183 FILLER_3_93
*3184 FILLER_40_109
*3185 FILLER_40_121
*3186 FILLER_40_133
*3187 FILLER_40_139
*3188 FILLER_40_141
*3189 FILLER_40_15
*3190 FILLER_40_153
*3191 FILLER_40_165
*3192 FILLER_40_177
*3193 FILLER_40_189
*3194 FILLER_40_195
*3195 FILLER_40_197
*3196 FILLER_40_209
*3197 FILLER_40_221
*3198 FILLER_40_233
*3199 FILLER_40_245
*3200 FILLER_40_251
*3201 FILLER_40_253
*3202 FILLER_40_265
*3203 FILLER_40_27
*3204 FILLER_40_277
*3205 FILLER_40_289
*3206 FILLER_40_29
*3207 FILLER_40_3
*3208 FILLER_40_301
*3209 FILLER_40_307
*3210 FILLER_40_309
*3211 FILLER_40_321
*3212 FILLER_40_333
*3213 FILLER_40_345
*3214 FILLER_40_357
*3215 FILLER_40_363
*3216 FILLER_40_365
*3217 FILLER_40_377
*3218 FILLER_40_389
*3219 FILLER_40_401
*3220 FILLER_40_41
*3221 FILLER_40_413
*3222 FILLER_40_419
*3223 FILLER_40_421
*3224 FILLER_40_433
*3225 FILLER_40_445
*3226 FILLER_40_457
*3227 FILLER_40_469
*3228 FILLER_40_475
*3229 FILLER_40_477
*3230 FILLER_40_489
*3231 FILLER_40_501
*3232 FILLER_40_513
*3233 FILLER_40_525
*3234 FILLER_40_53
*3235 FILLER_40_531
*3236 FILLER_40_533
*3237 FILLER_40_545
*3238 FILLER_40_557
*3239 FILLER_40_569
*3240 FILLER_40_581
*3241 FILLER_40_587
*3242 FILLER_40_589
*3243 FILLER_40_601
*3244 FILLER_40_613
*3245 FILLER_40_625
*3246 FILLER_40_637
*3247 FILLER_40_643
*3248 FILLER_40_645
*3249 FILLER_40_65
*3250 FILLER_40_657
*3251 FILLER_40_77
*3252 FILLER_40_83
*3253 FILLER_40_85
*3254 FILLER_40_97
*3255 FILLER_41_105
*3256 FILLER_41_111
*3257 FILLER_41_113
*3258 FILLER_41_125
*3259 FILLER_41_137
*3260 FILLER_41_149
*3261 FILLER_41_15
*3262 FILLER_41_161
*3263 FILLER_41_167
*3264 FILLER_41_169
*3265 FILLER_41_181
*3266 FILLER_41_193
*3267 FILLER_41_205
*3268 FILLER_41_217
*3269 FILLER_41_223
*3270 FILLER_41_225
*3271 FILLER_41_237
*3272 FILLER_41_249
*3273 FILLER_41_261
*3274 FILLER_41_27
*3275 FILLER_41_273
*3276 FILLER_41_279
*3277 FILLER_41_281
*3278 FILLER_41_293
*3279 FILLER_41_3
*3280 FILLER_41_305
*3281 FILLER_41_317
*3282 FILLER_41_329
*3283 FILLER_41_335
*3284 FILLER_41_337
*3285 FILLER_41_349
*3286 FILLER_41_361
*3287 FILLER_41_373
*3288 FILLER_41_385
*3289 FILLER_41_39
*3290 FILLER_41_391
*3291 FILLER_41_393
*3292 FILLER_41_405
*3293 FILLER_41_417
*3294 FILLER_41_429
*3295 FILLER_41_441
*3296 FILLER_41_447
*3297 FILLER_41_449
*3298 FILLER_41_461
*3299 FILLER_41_473
*3300 FILLER_41_485
*3301 FILLER_41_497
*3302 FILLER_41_503
*3303 FILLER_41_505
*3304 FILLER_41_51
*3305 FILLER_41_517
*3306 FILLER_41_529
*3307 FILLER_41_541
*3308 FILLER_41_55
*3309 FILLER_41_553
*3310 FILLER_41_559
*3311 FILLER_41_561
*3312 FILLER_41_57
*3313 FILLER_41_573
*3314 FILLER_41_585
*3315 FILLER_41_597
*3316 FILLER_41_609
*3317 FILLER_41_615
*3318 FILLER_41_617
*3319 FILLER_41_629
*3320 FILLER_41_641
*3321 FILLER_41_653
*3322 FILLER_41_69
*3323 FILLER_41_81
*3324 FILLER_41_93
*3325 FILLER_42_109
*3326 FILLER_42_121
*3327 FILLER_42_133
*3328 FILLER_42_139
*3329 FILLER_42_141
*3330 FILLER_42_15
*3331 FILLER_42_153
*3332 FILLER_42_165
*3333 FILLER_42_177
*3334 FILLER_42_189
*3335 FILLER_42_195
*3336 FILLER_42_197
*3337 FILLER_42_209
*3338 FILLER_42_221
*3339 FILLER_42_233
*3340 FILLER_42_245
*3341 FILLER_42_251
*3342 FILLER_42_253
*3343 FILLER_42_265
*3344 FILLER_42_27
*3345 FILLER_42_277
*3346 FILLER_42_289
*3347 FILLER_42_29
*3348 FILLER_42_3
*3349 FILLER_42_301
*3350 FILLER_42_307
*3351 FILLER_42_309
*3352 FILLER_42_321
*3353 FILLER_42_333
*3354 FILLER_42_345
*3355 FILLER_42_357
*3356 FILLER_42_363
*3357 FILLER_42_365
*3358 FILLER_42_377
*3359 FILLER_42_389
*3360 FILLER_42_401
*3361 FILLER_42_41
*3362 FILLER_42_413
*3363 FILLER_42_419
*3364 FILLER_42_421
*3365 FILLER_42_433
*3366 FILLER_42_445
*3367 FILLER_42_457
*3368 FILLER_42_469
*3369 FILLER_42_475
*3370 FILLER_42_477
*3371 FILLER_42_489
*3372 FILLER_42_501
*3373 FILLER_42_513
*3374 FILLER_42_525
*3375 FILLER_42_53
*3376 FILLER_42_531
*3377 FILLER_42_533
*3378 FILLER_42_545
*3379 FILLER_42_557
*3380 FILLER_42_569
*3381 FILLER_42_581
*3382 FILLER_42_587
*3383 FILLER_42_589
*3384 FILLER_42_601
*3385 FILLER_42_613
*3386 FILLER_42_625
*3387 FILLER_42_637
*3388 FILLER_42_643
*3389 FILLER_42_645
*3390 FILLER_42_65
*3391 FILLER_42_657
*3392 FILLER_42_77
*3393 FILLER_42_83
*3394 FILLER_42_85
*3395 FILLER_42_97
*3396 FILLER_43_105
*3397 FILLER_43_111
*3398 FILLER_43_113
*3399 FILLER_43_125
*3400 FILLER_43_137
*3401 FILLER_43_149
*3402 FILLER_43_15
*3403 FILLER_43_161
*3404 FILLER_43_167
*3405 FILLER_43_169
*3406 FILLER_43_181
*3407 FILLER_43_193
*3408 FILLER_43_205
*3409 FILLER_43_217
*3410 FILLER_43_223
*3411 FILLER_43_225
*3412 FILLER_43_237
*3413 FILLER_43_249
*3414 FILLER_43_261
*3415 FILLER_43_27
*3416 FILLER_43_273
*3417 FILLER_43_279
*3418 FILLER_43_281
*3419 FILLER_43_293
*3420 FILLER_43_3
*3421 FILLER_43_305
*3422 FILLER_43_317
*3423 FILLER_43_329
*3424 FILLER_43_335
*3425 FILLER_43_337
*3426 FILLER_43_349
*3427 FILLER_43_361
*3428 FILLER_43_373
*3429 FILLER_43_385
*3430 FILLER_43_39
*3431 FILLER_43_391
*3432 FILLER_43_393
*3433 FILLER_43_405
*3434 FILLER_43_417
*3435 FILLER_43_429
*3436 FILLER_43_441
*3437 FILLER_43_447
*3438 FILLER_43_449
*3439 FILLER_43_461
*3440 FILLER_43_473
*3441 FILLER_43_485
*3442 FILLER_43_497
*3443 FILLER_43_503
*3444 FILLER_43_505
*3445 FILLER_43_51
*3446 FILLER_43_517
*3447 FILLER_43_529
*3448 FILLER_43_541
*3449 FILLER_43_55
*3450 FILLER_43_553
*3451 FILLER_43_559
*3452 FILLER_43_561
*3453 FILLER_43_57
*3454 FILLER_43_573
*3455 FILLER_43_585
*3456 FILLER_43_597
*3457 FILLER_43_609
*3458 FILLER_43_615
*3459 FILLER_43_617
*3460 FILLER_43_629
*3461 FILLER_43_641
*3462 FILLER_43_653
*3463 FILLER_43_665
*3464 FILLER_43_69
*3465 FILLER_43_81
*3466 FILLER_43_93
*3467 FILLER_44_109
*3468 FILLER_44_121
*3469 FILLER_44_133
*3470 FILLER_44_139
*3471 FILLER_44_141
*3472 FILLER_44_15
*3473 FILLER_44_153
*3474 FILLER_44_165
*3475 FILLER_44_177
*3476 FILLER_44_189
*3477 FILLER_44_195
*3478 FILLER_44_197
*3479 FILLER_44_209
*3480 FILLER_44_221
*3481 FILLER_44_233
*3482 FILLER_44_245
*3483 FILLER_44_251
*3484 FILLER_44_253
*3485 FILLER_44_265
*3486 FILLER_44_27
*3487 FILLER_44_277
*3488 FILLER_44_289
*3489 FILLER_44_29
*3490 FILLER_44_3
*3491 FILLER_44_301
*3492 FILLER_44_307
*3493 FILLER_44_309
*3494 FILLER_44_321
*3495 FILLER_44_333
*3496 FILLER_44_345
*3497 FILLER_44_357
*3498 FILLER_44_363
*3499 FILLER_44_365
*3500 FILLER_44_377
*3501 FILLER_44_389
*3502 FILLER_44_401
*3503 FILLER_44_41
*3504 FILLER_44_413
*3505 FILLER_44_419
*3506 FILLER_44_421
*3507 FILLER_44_433
*3508 FILLER_44_445
*3509 FILLER_44_457
*3510 FILLER_44_469
*3511 FILLER_44_475
*3512 FILLER_44_477
*3513 FILLER_44_489
*3514 FILLER_44_501
*3515 FILLER_44_513
*3516 FILLER_44_525
*3517 FILLER_44_53
*3518 FILLER_44_531
*3519 FILLER_44_533
*3520 FILLER_44_545
*3521 FILLER_44_557
*3522 FILLER_44_569
*3523 FILLER_44_581
*3524 FILLER_44_587
*3525 FILLER_44_589
*3526 FILLER_44_601
*3527 FILLER_44_613
*3528 FILLER_44_625
*3529 FILLER_44_637
*3530 FILLER_44_643
*3531 FILLER_44_645
*3532 FILLER_44_65
*3533 FILLER_44_657
*3534 FILLER_44_77
*3535 FILLER_44_83
*3536 FILLER_44_85
*3537 FILLER_44_97
*3538 FILLER_45_105
*3539 FILLER_45_111
*3540 FILLER_45_113
*3541 FILLER_45_125
*3542 FILLER_45_137
*3543 FILLER_45_149
*3544 FILLER_45_15
*3545 FILLER_45_161
*3546 FILLER_45_167
*3547 FILLER_45_169
*3548 FILLER_45_181
*3549 FILLER_45_193
*3550 FILLER_45_205
*3551 FILLER_45_217
*3552 FILLER_45_223
*3553 FILLER_45_225
*3554 FILLER_45_237
*3555 FILLER_45_249
*3556 FILLER_45_261
*3557 FILLER_45_27
*3558 FILLER_45_273
*3559 FILLER_45_279
*3560 FILLER_45_281
*3561 FILLER_45_293
*3562 FILLER_45_3
*3563 FILLER_45_305
*3564 FILLER_45_317
*3565 FILLER_45_329
*3566 FILLER_45_335
*3567 FILLER_45_337
*3568 FILLER_45_349
*3569 FILLER_45_361
*3570 FILLER_45_373
*3571 FILLER_45_385
*3572 FILLER_45_39
*3573 FILLER_45_391
*3574 FILLER_45_393
*3575 FILLER_45_405
*3576 FILLER_45_417
*3577 FILLER_45_429
*3578 FILLER_45_441
*3579 FILLER_45_447
*3580 FILLER_45_449
*3581 FILLER_45_461
*3582 FILLER_45_473
*3583 FILLER_45_485
*3584 FILLER_45_497
*3585 FILLER_45_503
*3586 FILLER_45_505
*3587 FILLER_45_51
*3588 FILLER_45_517
*3589 FILLER_45_529
*3590 FILLER_45_541
*3591 FILLER_45_55
*3592 FILLER_45_553
*3593 FILLER_45_559
*3594 FILLER_45_561
*3595 FILLER_45_57
*3596 FILLER_45_573
*3597 FILLER_45_585
*3598 FILLER_45_597
*3599 FILLER_45_609
*3600 FILLER_45_615
*3601 FILLER_45_617
*3602 FILLER_45_629
*3603 FILLER_45_641
*3604 FILLER_45_653
*3605 FILLER_45_69
*3606 FILLER_45_81
*3607 FILLER_45_93
*3608 FILLER_46_109
*3609 FILLER_46_121
*3610 FILLER_46_133
*3611 FILLER_46_139
*3612 FILLER_46_141
*3613 FILLER_46_15
*3614 FILLER_46_153
*3615 FILLER_46_165
*3616 FILLER_46_177
*3617 FILLER_46_189
*3618 FILLER_46_195
*3619 FILLER_46_197
*3620 FILLER_46_209
*3621 FILLER_46_221
*3622 FILLER_46_233
*3623 FILLER_46_245
*3624 FILLER_46_251
*3625 FILLER_46_253
*3626 FILLER_46_265
*3627 FILLER_46_27
*3628 FILLER_46_277
*3629 FILLER_46_289
*3630 FILLER_46_29
*3631 FILLER_46_3
*3632 FILLER_46_301
*3633 FILLER_46_307
*3634 FILLER_46_309
*3635 FILLER_46_321
*3636 FILLER_46_333
*3637 FILLER_46_345
*3638 FILLER_46_357
*3639 FILLER_46_363
*3640 FILLER_46_365
*3641 FILLER_46_377
*3642 FILLER_46_389
*3643 FILLER_46_401
*3644 FILLER_46_41
*3645 FILLER_46_413
*3646 FILLER_46_419
*3647 FILLER_46_421
*3648 FILLER_46_433
*3649 FILLER_46_445
*3650 FILLER_46_457
*3651 FILLER_46_469
*3652 FILLER_46_475
*3653 FILLER_46_477
*3654 FILLER_46_489
*3655 FILLER_46_501
*3656 FILLER_46_513
*3657 FILLER_46_525
*3658 FILLER_46_53
*3659 FILLER_46_531
*3660 FILLER_46_533
*3661 FILLER_46_545
*3662 FILLER_46_557
*3663 FILLER_46_569
*3664 FILLER_46_581
*3665 FILLER_46_587
*3666 FILLER_46_589
*3667 FILLER_46_601
*3668 FILLER_46_613
*3669 FILLER_46_625
*3670 FILLER_46_637
*3671 FILLER_46_643
*3672 FILLER_46_645
*3673 FILLER_46_65
*3674 FILLER_46_657
*3675 FILLER_46_77
*3676 FILLER_46_83
*3677 FILLER_46_85
*3678 FILLER_46_97
*3679 FILLER_47_105
*3680 FILLER_47_111
*3681 FILLER_47_113
*3682 FILLER_47_125
*3683 FILLER_47_137
*3684 FILLER_47_149
*3685 FILLER_47_161
*3686 FILLER_47_167
*3687 FILLER_47_169
*3688 FILLER_47_18
*3689 FILLER_47_181
*3690 FILLER_47_193
*3691 FILLER_47_205
*3692 FILLER_47_217
*3693 FILLER_47_223
*3694 FILLER_47_225
*3695 FILLER_47_237
*3696 FILLER_47_249
*3697 FILLER_47_261
*3698 FILLER_47_273
*3699 FILLER_47_279
*3700 FILLER_47_281
*3701 FILLER_47_293
*3702 FILLER_47_30
*3703 FILLER_47_305
*3704 FILLER_47_317
*3705 FILLER_47_329
*3706 FILLER_47_335
*3707 FILLER_47_337
*3708 FILLER_47_349
*3709 FILLER_47_361
*3710 FILLER_47_373
*3711 FILLER_47_385
*3712 FILLER_47_391
*3713 FILLER_47_393
*3714 FILLER_47_405
*3715 FILLER_47_417
*3716 FILLER_47_42
*3717 FILLER_47_429
*3718 FILLER_47_441
*3719 FILLER_47_447
*3720 FILLER_47_449
*3721 FILLER_47_461
*3722 FILLER_47_473
*3723 FILLER_47_485
*3724 FILLER_47_497
*3725 FILLER_47_503
*3726 FILLER_47_505
*3727 FILLER_47_517
*3728 FILLER_47_529
*3729 FILLER_47_54
*3730 FILLER_47_541
*3731 FILLER_47_553
*3732 FILLER_47_559
*3733 FILLER_47_561
*3734 FILLER_47_57
*3735 FILLER_47_573
*3736 FILLER_47_585
*3737 FILLER_47_597
*3738 FILLER_47_6
*3739 FILLER_47_609
*3740 FILLER_47_615
*3741 FILLER_47_617
*3742 FILLER_47_629
*3743 FILLER_47_641
*3744 FILLER_47_653
*3745 FILLER_47_69
*3746 FILLER_47_81
*3747 FILLER_47_93
*3748 FILLER_48_109
*3749 FILLER_48_121
*3750 FILLER_48_133
*3751 FILLER_48_139
*3752 FILLER_48_141
*3753 FILLER_48_15
*3754 FILLER_48_153
*3755 FILLER_48_165
*3756 FILLER_48_177
*3757 FILLER_48_189
*3758 FILLER_48_195
*3759 FILLER_48_197
*3760 FILLER_48_209
*3761 FILLER_48_221
*3762 FILLER_48_233
*3763 FILLER_48_245
*3764 FILLER_48_251
*3765 FILLER_48_253
*3766 FILLER_48_265
*3767 FILLER_48_27
*3768 FILLER_48_277
*3769 FILLER_48_289
*3770 FILLER_48_29
*3771 FILLER_48_3
*3772 FILLER_48_301
*3773 FILLER_48_307
*3774 FILLER_48_309
*3775 FILLER_48_321
*3776 FILLER_48_333
*3777 FILLER_48_345
*3778 FILLER_48_357
*3779 FILLER_48_363
*3780 FILLER_48_365
*3781 FILLER_48_377
*3782 FILLER_48_389
*3783 FILLER_48_401
*3784 FILLER_48_41
*3785 FILLER_48_413
*3786 FILLER_48_419
*3787 FILLER_48_421
*3788 FILLER_48_433
*3789 FILLER_48_445
*3790 FILLER_48_457
*3791 FILLER_48_469
*3792 FILLER_48_475
*3793 FILLER_48_477
*3794 FILLER_48_489
*3795 FILLER_48_501
*3796 FILLER_48_513
*3797 FILLER_48_525
*3798 FILLER_48_53
*3799 FILLER_48_531
*3800 FILLER_48_533
*3801 FILLER_48_545
*3802 FILLER_48_557
*3803 FILLER_48_569
*3804 FILLER_48_581
*3805 FILLER_48_587
*3806 FILLER_48_589
*3807 FILLER_48_601
*3808 FILLER_48_613
*3809 FILLER_48_625
*3810 FILLER_48_637
*3811 FILLER_48_643
*3812 FILLER_48_645
*3813 FILLER_48_65
*3814 FILLER_48_657
*3815 FILLER_48_665
*3816 FILLER_48_77
*3817 FILLER_48_83
*3818 FILLER_48_85
*3819 FILLER_48_97
*3820 FILLER_49_105
*3821 FILLER_49_111
*3822 FILLER_49_113
*3823 FILLER_49_125
*3824 FILLER_49_137
*3825 FILLER_49_149
*3826 FILLER_49_161
*3827 FILLER_49_167
*3828 FILLER_49_169
*3829 FILLER_49_18
*3830 FILLER_49_181
*3831 FILLER_49_193
*3832 FILLER_49_205
*3833 FILLER_49_217
*3834 FILLER_49_223
*3835 FILLER_49_225
*3836 FILLER_49_237
*3837 FILLER_49_249
*3838 FILLER_49_261
*3839 FILLER_49_273
*3840 FILLER_49_279
*3841 FILLER_49_281
*3842 FILLER_49_293
*3843 FILLER_49_30
*3844 FILLER_49_305
*3845 FILLER_49_317
*3846 FILLER_49_329
*3847 FILLER_49_335
*3848 FILLER_49_337
*3849 FILLER_49_349
*3850 FILLER_49_361
*3851 FILLER_49_373
*3852 FILLER_49_385
*3853 FILLER_49_391
*3854 FILLER_49_393
*3855 FILLER_49_405
*3856 FILLER_49_417
*3857 FILLER_49_42
*3858 FILLER_49_429
*3859 FILLER_49_441
*3860 FILLER_49_447
*3861 FILLER_49_449
*3862 FILLER_49_461
*3863 FILLER_49_473
*3864 FILLER_49_485
*3865 FILLER_49_497
*3866 FILLER_49_503
*3867 FILLER_49_505
*3868 FILLER_49_517
*3869 FILLER_49_529
*3870 FILLER_49_54
*3871 FILLER_49_541
*3872 FILLER_49_553
*3873 FILLER_49_559
*3874 FILLER_49_561
*3875 FILLER_49_57
*3876 FILLER_49_573
*3877 FILLER_49_585
*3878 FILLER_49_597
*3879 FILLER_49_6
*3880 FILLER_49_609
*3881 FILLER_49_615
*3882 FILLER_49_617
*3883 FILLER_49_629
*3884 FILLER_49_641
*3885 FILLER_49_653
*3886 FILLER_49_69
*3887 FILLER_49_81
*3888 FILLER_49_93
*3889 FILLER_4_109
*3890 FILLER_4_121
*3891 FILLER_4_133
*3892 FILLER_4_139
*3893 FILLER_4_141
*3894 FILLER_4_15
*3895 FILLER_4_153
*3896 FILLER_4_165
*3897 FILLER_4_177
*3898 FILLER_4_189
*3899 FILLER_4_195
*3900 FILLER_4_197
*3901 FILLER_4_209
*3902 FILLER_4_221
*3903 FILLER_4_233
*3904 FILLER_4_245
*3905 FILLER_4_251
*3906 FILLER_4_253
*3907 FILLER_4_265
*3908 FILLER_4_27
*3909 FILLER_4_277
*3910 FILLER_4_289
*3911 FILLER_4_29
*3912 FILLER_4_3
*3913 FILLER_4_301
*3914 FILLER_4_307
*3915 FILLER_4_309
*3916 FILLER_4_321
*3917 FILLER_4_333
*3918 FILLER_4_345
*3919 FILLER_4_357
*3920 FILLER_4_363
*3921 FILLER_4_365
*3922 FILLER_4_377
*3923 FILLER_4_389
*3924 FILLER_4_401
*3925 FILLER_4_41
*3926 FILLER_4_413
*3927 FILLER_4_419
*3928 FILLER_4_421
*3929 FILLER_4_433
*3930 FILLER_4_445
*3931 FILLER_4_457
*3932 FILLER_4_469
*3933 FILLER_4_475
*3934 FILLER_4_477
*3935 FILLER_4_489
*3936 FILLER_4_501
*3937 FILLER_4_513
*3938 FILLER_4_525
*3939 FILLER_4_53
*3940 FILLER_4_531
*3941 FILLER_4_533
*3942 FILLER_4_545
*3943 FILLER_4_557
*3944 FILLER_4_569
*3945 FILLER_4_581
*3946 FILLER_4_587
*3947 FILLER_4_589
*3948 FILLER_4_601
*3949 FILLER_4_613
*3950 FILLER_4_625
*3951 FILLER_4_637
*3952 FILLER_4_643
*3953 FILLER_4_645
*3954 FILLER_4_65
*3955 FILLER_4_657
*3956 FILLER_4_665
*3957 FILLER_4_77
*3958 FILLER_4_83
*3959 FILLER_4_85
*3960 FILLER_4_97
*3961 FILLER_50_109
*3962 FILLER_50_121
*3963 FILLER_50_133
*3964 FILLER_50_139
*3965 FILLER_50_141
*3966 FILLER_50_153
*3967 FILLER_50_165
*3968 FILLER_50_177
*3969 FILLER_50_18
*3970 FILLER_50_189
*3971 FILLER_50_195
*3972 FILLER_50_197
*3973 FILLER_50_209
*3974 FILLER_50_221
*3975 FILLER_50_233
*3976 FILLER_50_245
*3977 FILLER_50_251
*3978 FILLER_50_253
*3979 FILLER_50_26
*3980 FILLER_50_265
*3981 FILLER_50_277
*3982 FILLER_50_289
*3983 FILLER_50_29
*3984 FILLER_50_301
*3985 FILLER_50_307
*3986 FILLER_50_309
*3987 FILLER_50_321
*3988 FILLER_50_333
*3989 FILLER_50_345
*3990 FILLER_50_357
*3991 FILLER_50_363
*3992 FILLER_50_365
*3993 FILLER_50_377
*3994 FILLER_50_389
*3995 FILLER_50_401
*3996 FILLER_50_41
*3997 FILLER_50_413
*3998 FILLER_50_419
*3999 FILLER_50_421
*4000 FILLER_50_433
*4001 FILLER_50_445
*4002 FILLER_50_457
*4003 FILLER_50_469
*4004 FILLER_50_475
*4005 FILLER_50_477
*4006 FILLER_50_489
*4007 FILLER_50_501
*4008 FILLER_50_513
*4009 FILLER_50_525
*4010 FILLER_50_53
*4011 FILLER_50_531
*4012 FILLER_50_533
*4013 FILLER_50_545
*4014 FILLER_50_557
*4015 FILLER_50_569
*4016 FILLER_50_581
*4017 FILLER_50_587
*4018 FILLER_50_589
*4019 FILLER_50_6
*4020 FILLER_50_601
*4021 FILLER_50_613
*4022 FILLER_50_625
*4023 FILLER_50_637
*4024 FILLER_50_643
*4025 FILLER_50_645
*4026 FILLER_50_65
*4027 FILLER_50_657
*4028 FILLER_50_77
*4029 FILLER_50_83
*4030 FILLER_50_85
*4031 FILLER_50_97
*4032 FILLER_51_105
*4033 FILLER_51_111
*4034 FILLER_51_113
*4035 FILLER_51_125
*4036 FILLER_51_137
*4037 FILLER_51_149
*4038 FILLER_51_161
*4039 FILLER_51_167
*4040 FILLER_51_169
*4041 FILLER_51_18
*4042 FILLER_51_181
*4043 FILLER_51_193
*4044 FILLER_51_205
*4045 FILLER_51_217
*4046 FILLER_51_223
*4047 FILLER_51_225
*4048 FILLER_51_237
*4049 FILLER_51_249
*4050 FILLER_51_261
*4051 FILLER_51_273
*4052 FILLER_51_279
*4053 FILLER_51_281
*4054 FILLER_51_293
*4055 FILLER_51_30
*4056 FILLER_51_305
*4057 FILLER_51_317
*4058 FILLER_51_329
*4059 FILLER_51_335
*4060 FILLER_51_337
*4061 FILLER_51_349
*4062 FILLER_51_361
*4063 FILLER_51_373
*4064 FILLER_51_385
*4065 FILLER_51_391
*4066 FILLER_51_393
*4067 FILLER_51_405
*4068 FILLER_51_417
*4069 FILLER_51_42
*4070 FILLER_51_429
*4071 FILLER_51_441
*4072 FILLER_51_447
*4073 FILLER_51_449
*4074 FILLER_51_461
*4075 FILLER_51_473
*4076 FILLER_51_485
*4077 FILLER_51_497
*4078 FILLER_51_503
*4079 FILLER_51_505
*4080 FILLER_51_517
*4081 FILLER_51_529
*4082 FILLER_51_54
*4083 FILLER_51_541
*4084 FILLER_51_553
*4085 FILLER_51_559
*4086 FILLER_51_561
*4087 FILLER_51_57
*4088 FILLER_51_573
*4089 FILLER_51_585
*4090 FILLER_51_597
*4091 FILLER_51_6
*4092 FILLER_51_609
*4093 FILLER_51_615
*4094 FILLER_51_617
*4095 FILLER_51_629
*4096 FILLER_51_641
*4097 FILLER_51_653
*4098 FILLER_51_69
*4099 FILLER_51_81
*4100 FILLER_51_93
*4101 FILLER_52_109
*4102 FILLER_52_121
*4103 FILLER_52_133
*4104 FILLER_52_139
*4105 FILLER_52_141
*4106 FILLER_52_153
*4107 FILLER_52_165
*4108 FILLER_52_177
*4109 FILLER_52_18
*4110 FILLER_52_189
*4111 FILLER_52_195
*4112 FILLER_52_197
*4113 FILLER_52_209
*4114 FILLER_52_221
*4115 FILLER_52_233
*4116 FILLER_52_245
*4117 FILLER_52_251
*4118 FILLER_52_253
*4119 FILLER_52_26
*4120 FILLER_52_265
*4121 FILLER_52_277
*4122 FILLER_52_289
*4123 FILLER_52_29
*4124 FILLER_52_301
*4125 FILLER_52_307
*4126 FILLER_52_309
*4127 FILLER_52_321
*4128 FILLER_52_333
*4129 FILLER_52_345
*4130 FILLER_52_357
*4131 FILLER_52_363
*4132 FILLER_52_365
*4133 FILLER_52_377
*4134 FILLER_52_389
*4135 FILLER_52_401
*4136 FILLER_52_41
*4137 FILLER_52_413
*4138 FILLER_52_419
*4139 FILLER_52_421
*4140 FILLER_52_433
*4141 FILLER_52_445
*4142 FILLER_52_457
*4143 FILLER_52_469
*4144 FILLER_52_475
*4145 FILLER_52_477
*4146 FILLER_52_489
*4147 FILLER_52_501
*4148 FILLER_52_513
*4149 FILLER_52_525
*4150 FILLER_52_53
*4151 FILLER_52_531
*4152 FILLER_52_533
*4153 FILLER_52_545
*4154 FILLER_52_557
*4155 FILLER_52_569
*4156 FILLER_52_581
*4157 FILLER_52_587
*4158 FILLER_52_589
*4159 FILLER_52_6
*4160 FILLER_52_601
*4161 FILLER_52_613
*4162 FILLER_52_625
*4163 FILLER_52_637
*4164 FILLER_52_643
*4165 FILLER_52_645
*4166 FILLER_52_65
*4167 FILLER_52_657
*4168 FILLER_52_77
*4169 FILLER_52_83
*4170 FILLER_52_85
*4171 FILLER_52_97
*4172 FILLER_53_105
*4173 FILLER_53_111
*4174 FILLER_53_113
*4175 FILLER_53_125
*4176 FILLER_53_137
*4177 FILLER_53_149
*4178 FILLER_53_15
*4179 FILLER_53_161
*4180 FILLER_53_167
*4181 FILLER_53_169
*4182 FILLER_53_181
*4183 FILLER_53_193
*4184 FILLER_53_205
*4185 FILLER_53_217
*4186 FILLER_53_223
*4187 FILLER_53_225
*4188 FILLER_53_237
*4189 FILLER_53_249
*4190 FILLER_53_261
*4191 FILLER_53_27
*4192 FILLER_53_273
*4193 FILLER_53_279
*4194 FILLER_53_281
*4195 FILLER_53_293
*4196 FILLER_53_3
*4197 FILLER_53_305
*4198 FILLER_53_317
*4199 FILLER_53_329
*4200 FILLER_53_335
*4201 FILLER_53_337
*4202 FILLER_53_349
*4203 FILLER_53_361
*4204 FILLER_53_373
*4205 FILLER_53_385
*4206 FILLER_53_39
*4207 FILLER_53_391
*4208 FILLER_53_393
*4209 FILLER_53_405
*4210 FILLER_53_417
*4211 FILLER_53_429
*4212 FILLER_53_441
*4213 FILLER_53_447
*4214 FILLER_53_449
*4215 FILLER_53_461
*4216 FILLER_53_473
*4217 FILLER_53_485
*4218 FILLER_53_497
*4219 FILLER_53_503
*4220 FILLER_53_505
*4221 FILLER_53_51
*4222 FILLER_53_517
*4223 FILLER_53_529
*4224 FILLER_53_541
*4225 FILLER_53_55
*4226 FILLER_53_553
*4227 FILLER_53_559
*4228 FILLER_53_561
*4229 FILLER_53_57
*4230 FILLER_53_573
*4231 FILLER_53_585
*4232 FILLER_53_597
*4233 FILLER_53_609
*4234 FILLER_53_615
*4235 FILLER_53_617
*4236 FILLER_53_629
*4237 FILLER_53_641
*4238 FILLER_53_653
*4239 FILLER_53_665
*4240 FILLER_53_69
*4241 FILLER_53_81
*4242 FILLER_53_93
*4243 FILLER_54_109
*4244 FILLER_54_121
*4245 FILLER_54_133
*4246 FILLER_54_139
*4247 FILLER_54_141
*4248 FILLER_54_153
*4249 FILLER_54_165
*4250 FILLER_54_177
*4251 FILLER_54_18
*4252 FILLER_54_189
*4253 FILLER_54_195
*4254 FILLER_54_197
*4255 FILLER_54_209
*4256 FILLER_54_221
*4257 FILLER_54_233
*4258 FILLER_54_245
*4259 FILLER_54_251
*4260 FILLER_54_253
*4261 FILLER_54_26
*4262 FILLER_54_265
*4263 FILLER_54_277
*4264 FILLER_54_289
*4265 FILLER_54_29
*4266 FILLER_54_301
*4267 FILLER_54_307
*4268 FILLER_54_309
*4269 FILLER_54_321
*4270 FILLER_54_333
*4271 FILLER_54_345
*4272 FILLER_54_357
*4273 FILLER_54_363
*4274 FILLER_54_365
*4275 FILLER_54_377
*4276 FILLER_54_389
*4277 FILLER_54_401
*4278 FILLER_54_41
*4279 FILLER_54_413
*4280 FILLER_54_419
*4281 FILLER_54_421
*4282 FILLER_54_433
*4283 FILLER_54_445
*4284 FILLER_54_457
*4285 FILLER_54_469
*4286 FILLER_54_475
*4287 FILLER_54_477
*4288 FILLER_54_489
*4289 FILLER_54_501
*4290 FILLER_54_513
*4291 FILLER_54_525
*4292 FILLER_54_53
*4293 FILLER_54_531
*4294 FILLER_54_533
*4295 FILLER_54_545
*4296 FILLER_54_557
*4297 FILLER_54_569
*4298 FILLER_54_581
*4299 FILLER_54_587
*4300 FILLER_54_589
*4301 FILLER_54_6
*4302 FILLER_54_601
*4303 FILLER_54_613
*4304 FILLER_54_625
*4305 FILLER_54_637
*4306 FILLER_54_643
*4307 FILLER_54_645
*4308 FILLER_54_65
*4309 FILLER_54_657
*4310 FILLER_54_77
*4311 FILLER_54_83
*4312 FILLER_54_85
*4313 FILLER_54_97
*4314 FILLER_55_105
*4315 FILLER_55_111
*4316 FILLER_55_113
*4317 FILLER_55_125
*4318 FILLER_55_137
*4319 FILLER_55_149
*4320 FILLER_55_161
*4321 FILLER_55_167
*4322 FILLER_55_169
*4323 FILLER_55_18
*4324 FILLER_55_181
*4325 FILLER_55_193
*4326 FILLER_55_205
*4327 FILLER_55_217
*4328 FILLER_55_223
*4329 FILLER_55_225
*4330 FILLER_55_237
*4331 FILLER_55_249
*4332 FILLER_55_261
*4333 FILLER_55_273
*4334 FILLER_55_279
*4335 FILLER_55_281
*4336 FILLER_55_293
*4337 FILLER_55_30
*4338 FILLER_55_305
*4339 FILLER_55_317
*4340 FILLER_55_329
*4341 FILLER_55_335
*4342 FILLER_55_337
*4343 FILLER_55_349
*4344 FILLER_55_361
*4345 FILLER_55_373
*4346 FILLER_55_385
*4347 FILLER_55_391
*4348 FILLER_55_393
*4349 FILLER_55_405
*4350 FILLER_55_417
*4351 FILLER_55_42
*4352 FILLER_55_429
*4353 FILLER_55_441
*4354 FILLER_55_447
*4355 FILLER_55_449
*4356 FILLER_55_461
*4357 FILLER_55_473
*4358 FILLER_55_485
*4359 FILLER_55_497
*4360 FILLER_55_503
*4361 FILLER_55_505
*4362 FILLER_55_517
*4363 FILLER_55_529
*4364 FILLER_55_54
*4365 FILLER_55_541
*4366 FILLER_55_553
*4367 FILLER_55_559
*4368 FILLER_55_561
*4369 FILLER_55_57
*4370 FILLER_55_573
*4371 FILLER_55_585
*4372 FILLER_55_597
*4373 FILLER_55_6
*4374 FILLER_55_609
*4375 FILLER_55_615
*4376 FILLER_55_617
*4377 FILLER_55_629
*4378 FILLER_55_641
*4379 FILLER_55_653
*4380 FILLER_55_69
*4381 FILLER_55_81
*4382 FILLER_55_93
*4383 FILLER_56_109
*4384 FILLER_56_121
*4385 FILLER_56_133
*4386 FILLER_56_139
*4387 FILLER_56_141
*4388 FILLER_56_153
*4389 FILLER_56_165
*4390 FILLER_56_177
*4391 FILLER_56_18
*4392 FILLER_56_189
*4393 FILLER_56_195
*4394 FILLER_56_197
*4395 FILLER_56_209
*4396 FILLER_56_221
*4397 FILLER_56_233
*4398 FILLER_56_245
*4399 FILLER_56_251
*4400 FILLER_56_253
*4401 FILLER_56_26
*4402 FILLER_56_265
*4403 FILLER_56_277
*4404 FILLER_56_289
*4405 FILLER_56_29
*4406 FILLER_56_301
*4407 FILLER_56_307
*4408 FILLER_56_309
*4409 FILLER_56_321
*4410 FILLER_56_333
*4411 FILLER_56_345
*4412 FILLER_56_357
*4413 FILLER_56_363
*4414 FILLER_56_365
*4415 FILLER_56_377
*4416 FILLER_56_389
*4417 FILLER_56_401
*4418 FILLER_56_41
*4419 FILLER_56_413
*4420 FILLER_56_419
*4421 FILLER_56_421
*4422 FILLER_56_433
*4423 FILLER_56_445
*4424 FILLER_56_457
*4425 FILLER_56_469
*4426 FILLER_56_475
*4427 FILLER_56_477
*4428 FILLER_56_489
*4429 FILLER_56_501
*4430 FILLER_56_513
*4431 FILLER_56_525
*4432 FILLER_56_53
*4433 FILLER_56_531
*4434 FILLER_56_533
*4435 FILLER_56_545
*4436 FILLER_56_557
*4437 FILLER_56_569
*4438 FILLER_56_581
*4439 FILLER_56_587
*4440 FILLER_56_589
*4441 FILLER_56_6
*4442 FILLER_56_601
*4443 FILLER_56_613
*4444 FILLER_56_625
*4445 FILLER_56_637
*4446 FILLER_56_643
*4447 FILLER_56_645
*4448 FILLER_56_65
*4449 FILLER_56_657
*4450 FILLER_56_77
*4451 FILLER_56_83
*4452 FILLER_56_85
*4453 FILLER_56_97
*4454 FILLER_57_105
*4455 FILLER_57_111
*4456 FILLER_57_113
*4457 FILLER_57_125
*4458 FILLER_57_137
*4459 FILLER_57_149
*4460 FILLER_57_161
*4461 FILLER_57_167
*4462 FILLER_57_169
*4463 FILLER_57_18
*4464 FILLER_57_181
*4465 FILLER_57_193
*4466 FILLER_57_205
*4467 FILLER_57_217
*4468 FILLER_57_223
*4469 FILLER_57_225
*4470 FILLER_57_237
*4471 FILLER_57_249
*4472 FILLER_57_261
*4473 FILLER_57_273
*4474 FILLER_57_279
*4475 FILLER_57_281
*4476 FILLER_57_293
*4477 FILLER_57_30
*4478 FILLER_57_305
*4479 FILLER_57_317
*4480 FILLER_57_329
*4481 FILLER_57_335
*4482 FILLER_57_337
*4483 FILLER_57_349
*4484 FILLER_57_361
*4485 FILLER_57_373
*4486 FILLER_57_385
*4487 FILLER_57_391
*4488 FILLER_57_393
*4489 FILLER_57_405
*4490 FILLER_57_417
*4491 FILLER_57_42
*4492 FILLER_57_429
*4493 FILLER_57_441
*4494 FILLER_57_447
*4495 FILLER_57_449
*4496 FILLER_57_461
*4497 FILLER_57_473
*4498 FILLER_57_485
*4499 FILLER_57_497
*4500 FILLER_57_503
*4501 FILLER_57_505
*4502 FILLER_57_517
*4503 FILLER_57_529
*4504 FILLER_57_54
*4505 FILLER_57_541
*4506 FILLER_57_553
*4507 FILLER_57_559
*4508 FILLER_57_561
*4509 FILLER_57_57
*4510 FILLER_57_573
*4511 FILLER_57_585
*4512 FILLER_57_597
*4513 FILLER_57_6
*4514 FILLER_57_609
*4515 FILLER_57_615
*4516 FILLER_57_617
*4517 FILLER_57_629
*4518 FILLER_57_641
*4519 FILLER_57_653
*4520 FILLER_57_69
*4521 FILLER_57_81
*4522 FILLER_57_93
*4523 FILLER_58_109
*4524 FILLER_58_121
*4525 FILLER_58_133
*4526 FILLER_58_139
*4527 FILLER_58_141
*4528 FILLER_58_15
*4529 FILLER_58_153
*4530 FILLER_58_165
*4531 FILLER_58_177
*4532 FILLER_58_189
*4533 FILLER_58_195
*4534 FILLER_58_197
*4535 FILLER_58_209
*4536 FILLER_58_221
*4537 FILLER_58_233
*4538 FILLER_58_245
*4539 FILLER_58_251
*4540 FILLER_58_253
*4541 FILLER_58_265
*4542 FILLER_58_27
*4543 FILLER_58_277
*4544 FILLER_58_289
*4545 FILLER_58_29
*4546 FILLER_58_3
*4547 FILLER_58_301
*4548 FILLER_58_307
*4549 FILLER_58_309
*4550 FILLER_58_321
*4551 FILLER_58_333
*4552 FILLER_58_345
*4553 FILLER_58_357
*4554 FILLER_58_363
*4555 FILLER_58_365
*4556 FILLER_58_377
*4557 FILLER_58_389
*4558 FILLER_58_401
*4559 FILLER_58_41
*4560 FILLER_58_413
*4561 FILLER_58_419
*4562 FILLER_58_421
*4563 FILLER_58_433
*4564 FILLER_58_445
*4565 FILLER_58_457
*4566 FILLER_58_469
*4567 FILLER_58_475
*4568 FILLER_58_477
*4569 FILLER_58_489
*4570 FILLER_58_501
*4571 FILLER_58_513
*4572 FILLER_58_525
*4573 FILLER_58_53
*4574 FILLER_58_531
*4575 FILLER_58_533
*4576 FILLER_58_545
*4577 FILLER_58_557
*4578 FILLER_58_569
*4579 FILLER_58_581
*4580 FILLER_58_587
*4581 FILLER_58_589
*4582 FILLER_58_601
*4583 FILLER_58_613
*4584 FILLER_58_625
*4585 FILLER_58_637
*4586 FILLER_58_643
*4587 FILLER_58_645
*4588 FILLER_58_65
*4589 FILLER_58_657
*4590 FILLER_58_665
*4591 FILLER_58_77
*4592 FILLER_58_83
*4593 FILLER_58_85
*4594 FILLER_58_97
*4595 FILLER_59_105
*4596 FILLER_59_111
*4597 FILLER_59_113
*4598 FILLER_59_125
*4599 FILLER_59_137
*4600 FILLER_59_149
*4601 FILLER_59_161
*4602 FILLER_59_167
*4603 FILLER_59_169
*4604 FILLER_59_18
*4605 FILLER_59_181
*4606 FILLER_59_193
*4607 FILLER_59_205
*4608 FILLER_59_217
*4609 FILLER_59_223
*4610 FILLER_59_225
*4611 FILLER_59_237
*4612 FILLER_59_249
*4613 FILLER_59_261
*4614 FILLER_59_273
*4615 FILLER_59_279
*4616 FILLER_59_281
*4617 FILLER_59_293
*4618 FILLER_59_30
*4619 FILLER_59_305
*4620 FILLER_59_317
*4621 FILLER_59_329
*4622 FILLER_59_335
*4623 FILLER_59_337
*4624 FILLER_59_349
*4625 FILLER_59_361
*4626 FILLER_59_373
*4627 FILLER_59_385
*4628 FILLER_59_391
*4629 FILLER_59_393
*4630 FILLER_59_405
*4631 FILLER_59_417
*4632 FILLER_59_42
*4633 FILLER_59_429
*4634 FILLER_59_441
*4635 FILLER_59_447
*4636 FILLER_59_449
*4637 FILLER_59_461
*4638 FILLER_59_473
*4639 FILLER_59_485
*4640 FILLER_59_497
*4641 FILLER_59_503
*4642 FILLER_59_505
*4643 FILLER_59_517
*4644 FILLER_59_529
*4645 FILLER_59_54
*4646 FILLER_59_541
*4647 FILLER_59_553
*4648 FILLER_59_559
*4649 FILLER_59_561
*4650 FILLER_59_57
*4651 FILLER_59_573
*4652 FILLER_59_585
*4653 FILLER_59_597
*4654 FILLER_59_6
*4655 FILLER_59_609
*4656 FILLER_59_615
*4657 FILLER_59_617
*4658 FILLER_59_629
*4659 FILLER_59_641
*4660 FILLER_59_653
*4661 FILLER_59_69
*4662 FILLER_59_81
*4663 FILLER_59_93
*4664 FILLER_5_105
*4665 FILLER_5_111
*4666 FILLER_5_113
*4667 FILLER_5_125
*4668 FILLER_5_137
*4669 FILLER_5_149
*4670 FILLER_5_15
*4671 FILLER_5_161
*4672 FILLER_5_167
*4673 FILLER_5_169
*4674 FILLER_5_181
*4675 FILLER_5_193
*4676 FILLER_5_205
*4677 FILLER_5_217
*4678 FILLER_5_223
*4679 FILLER_5_225
*4680 FILLER_5_237
*4681 FILLER_5_249
*4682 FILLER_5_261
*4683 FILLER_5_27
*4684 FILLER_5_273
*4685 FILLER_5_279
*4686 FILLER_5_281
*4687 FILLER_5_293
*4688 FILLER_5_3
*4689 FILLER_5_305
*4690 FILLER_5_317
*4691 FILLER_5_329
*4692 FILLER_5_335
*4693 FILLER_5_337
*4694 FILLER_5_349
*4695 FILLER_5_361
*4696 FILLER_5_373
*4697 FILLER_5_385
*4698 FILLER_5_39
*4699 FILLER_5_391
*4700 FILLER_5_393
*4701 FILLER_5_405
*4702 FILLER_5_417
*4703 FILLER_5_429
*4704 FILLER_5_441
*4705 FILLER_5_447
*4706 FILLER_5_449
*4707 FILLER_5_461
*4708 FILLER_5_473
*4709 FILLER_5_485
*4710 FILLER_5_497
*4711 FILLER_5_503
*4712 FILLER_5_505
*4713 FILLER_5_51
*4714 FILLER_5_517
*4715 FILLER_5_529
*4716 FILLER_5_541
*4717 FILLER_5_55
*4718 FILLER_5_553
*4719 FILLER_5_559
*4720 FILLER_5_561
*4721 FILLER_5_57
*4722 FILLER_5_573
*4723 FILLER_5_585
*4724 FILLER_5_597
*4725 FILLER_5_609
*4726 FILLER_5_615
*4727 FILLER_5_617
*4728 FILLER_5_629
*4729 FILLER_5_641
*4730 FILLER_5_653
*4731 FILLER_5_665
*4732 FILLER_5_69
*4733 FILLER_5_81
*4734 FILLER_5_93
*4735 FILLER_60_109
*4736 FILLER_60_121
*4737 FILLER_60_133
*4738 FILLER_60_139
*4739 FILLER_60_141
*4740 FILLER_60_153
*4741 FILLER_60_165
*4742 FILLER_60_177
*4743 FILLER_60_18
*4744 FILLER_60_189
*4745 FILLER_60_195
*4746 FILLER_60_197
*4747 FILLER_60_209
*4748 FILLER_60_221
*4749 FILLER_60_233
*4750 FILLER_60_245
*4751 FILLER_60_251
*4752 FILLER_60_253
*4753 FILLER_60_26
*4754 FILLER_60_265
*4755 FILLER_60_277
*4756 FILLER_60_289
*4757 FILLER_60_29
*4758 FILLER_60_301
*4759 FILLER_60_307
*4760 FILLER_60_309
*4761 FILLER_60_321
*4762 FILLER_60_333
*4763 FILLER_60_345
*4764 FILLER_60_357
*4765 FILLER_60_363
*4766 FILLER_60_365
*4767 FILLER_60_377
*4768 FILLER_60_389
*4769 FILLER_60_401
*4770 FILLER_60_41
*4771 FILLER_60_413
*4772 FILLER_60_419
*4773 FILLER_60_421
*4774 FILLER_60_433
*4775 FILLER_60_445
*4776 FILLER_60_457
*4777 FILLER_60_469
*4778 FILLER_60_475
*4779 FILLER_60_477
*4780 FILLER_60_489
*4781 FILLER_60_501
*4782 FILLER_60_513
*4783 FILLER_60_525
*4784 FILLER_60_53
*4785 FILLER_60_531
*4786 FILLER_60_533
*4787 FILLER_60_545
*4788 FILLER_60_557
*4789 FILLER_60_569
*4790 FILLER_60_581
*4791 FILLER_60_587
*4792 FILLER_60_589
*4793 FILLER_60_6
*4794 FILLER_60_601
*4795 FILLER_60_613
*4796 FILLER_60_625
*4797 FILLER_60_637
*4798 FILLER_60_643
*4799 FILLER_60_645
*4800 FILLER_60_65
*4801 FILLER_60_657
*4802 FILLER_60_77
*4803 FILLER_60_83
*4804 FILLER_60_85
*4805 FILLER_60_97
*4806 FILLER_61_105
*4807 FILLER_61_111
*4808 FILLER_61_113
*4809 FILLER_61_125
*4810 FILLER_61_137
*4811 FILLER_61_149
*4812 FILLER_61_161
*4813 FILLER_61_167
*4814 FILLER_61_169
*4815 FILLER_61_18
*4816 FILLER_61_181
*4817 FILLER_61_193
*4818 FILLER_61_205
*4819 FILLER_61_217
*4820 FILLER_61_223
*4821 FILLER_61_225
*4822 FILLER_61_237
*4823 FILLER_61_249
*4824 FILLER_61_261
*4825 FILLER_61_273
*4826 FILLER_61_279
*4827 FILLER_61_281
*4828 FILLER_61_293
*4829 FILLER_61_30
*4830 FILLER_61_305
*4831 FILLER_61_317
*4832 FILLER_61_329
*4833 FILLER_61_335
*4834 FILLER_61_337
*4835 FILLER_61_349
*4836 FILLER_61_361
*4837 FILLER_61_373
*4838 FILLER_61_385
*4839 FILLER_61_391
*4840 FILLER_61_393
*4841 FILLER_61_405
*4842 FILLER_61_417
*4843 FILLER_61_42
*4844 FILLER_61_429
*4845 FILLER_61_441
*4846 FILLER_61_447
*4847 FILLER_61_449
*4848 FILLER_61_461
*4849 FILLER_61_473
*4850 FILLER_61_485
*4851 FILLER_61_497
*4852 FILLER_61_503
*4853 FILLER_61_505
*4854 FILLER_61_517
*4855 FILLER_61_529
*4856 FILLER_61_54
*4857 FILLER_61_541
*4858 FILLER_61_553
*4859 FILLER_61_559
*4860 FILLER_61_561
*4861 FILLER_61_57
*4862 FILLER_61_573
*4863 FILLER_61_585
*4864 FILLER_61_597
*4865 FILLER_61_6
*4866 FILLER_61_609
*4867 FILLER_61_615
*4868 FILLER_61_617
*4869 FILLER_61_629
*4870 FILLER_61_641
*4871 FILLER_61_653
*4872 FILLER_61_69
*4873 FILLER_61_81
*4874 FILLER_61_93
*4875 FILLER_62_109
*4876 FILLER_62_121
*4877 FILLER_62_133
*4878 FILLER_62_139
*4879 FILLER_62_141
*4880 FILLER_62_153
*4881 FILLER_62_165
*4882 FILLER_62_177
*4883 FILLER_62_18
*4884 FILLER_62_189
*4885 FILLER_62_195
*4886 FILLER_62_197
*4887 FILLER_62_209
*4888 FILLER_62_221
*4889 FILLER_62_233
*4890 FILLER_62_245
*4891 FILLER_62_251
*4892 FILLER_62_253
*4893 FILLER_62_26
*4894 FILLER_62_265
*4895 FILLER_62_277
*4896 FILLER_62_289
*4897 FILLER_62_29
*4898 FILLER_62_301
*4899 FILLER_62_307
*4900 FILLER_62_309
*4901 FILLER_62_321
*4902 FILLER_62_333
*4903 FILLER_62_345
*4904 FILLER_62_357
*4905 FILLER_62_363
*4906 FILLER_62_365
*4907 FILLER_62_377
*4908 FILLER_62_389
*4909 FILLER_62_401
*4910 FILLER_62_41
*4911 FILLER_62_413
*4912 FILLER_62_419
*4913 FILLER_62_421
*4914 FILLER_62_433
*4915 FILLER_62_445
*4916 FILLER_62_457
*4917 FILLER_62_469
*4918 FILLER_62_475
*4919 FILLER_62_477
*4920 FILLER_62_489
*4921 FILLER_62_501
*4922 FILLER_62_513
*4923 FILLER_62_525
*4924 FILLER_62_53
*4925 FILLER_62_531
*4926 FILLER_62_533
*4927 FILLER_62_545
*4928 FILLER_62_557
*4929 FILLER_62_569
*4930 FILLER_62_581
*4931 FILLER_62_587
*4932 FILLER_62_589
*4933 FILLER_62_6
*4934 FILLER_62_601
*4935 FILLER_62_613
*4936 FILLER_62_625
*4937 FILLER_62_637
*4938 FILLER_62_643
*4939 FILLER_62_645
*4940 FILLER_62_65
*4941 FILLER_62_657
*4942 FILLER_62_77
*4943 FILLER_62_83
*4944 FILLER_62_85
*4945 FILLER_62_97
*4946 FILLER_63_105
*4947 FILLER_63_111
*4948 FILLER_63_113
*4949 FILLER_63_125
*4950 FILLER_63_137
*4951 FILLER_63_149
*4952 FILLER_63_15
*4953 FILLER_63_161
*4954 FILLER_63_167
*4955 FILLER_63_169
*4956 FILLER_63_181
*4957 FILLER_63_193
*4958 FILLER_63_205
*4959 FILLER_63_217
*4960 FILLER_63_223
*4961 FILLER_63_225
*4962 FILLER_63_237
*4963 FILLER_63_249
*4964 FILLER_63_261
*4965 FILLER_63_27
*4966 FILLER_63_273
*4967 FILLER_63_279
*4968 FILLER_63_281
*4969 FILLER_63_293
*4970 FILLER_63_3
*4971 FILLER_63_305
*4972 FILLER_63_317
*4973 FILLER_63_329
*4974 FILLER_63_335
*4975 FILLER_63_337
*4976 FILLER_63_349
*4977 FILLER_63_361
*4978 FILLER_63_373
*4979 FILLER_63_385
*4980 FILLER_63_39
*4981 FILLER_63_391
*4982 FILLER_63_393
*4983 FILLER_63_405
*4984 FILLER_63_417
*4985 FILLER_63_429
*4986 FILLER_63_441
*4987 FILLER_63_447
*4988 FILLER_63_449
*4989 FILLER_63_461
*4990 FILLER_63_473
*4991 FILLER_63_485
*4992 FILLER_63_497
*4993 FILLER_63_503
*4994 FILLER_63_505
*4995 FILLER_63_51
*4996 FILLER_63_517
*4997 FILLER_63_529
*4998 FILLER_63_541
*4999 FILLER_63_55
*5000 FILLER_63_553
*5001 FILLER_63_559
*5002 FILLER_63_561
*5003 FILLER_63_57
*5004 FILLER_63_573
*5005 FILLER_63_585
*5006 FILLER_63_597
*5007 FILLER_63_609
*5008 FILLER_63_615
*5009 FILLER_63_617
*5010 FILLER_63_629
*5011 FILLER_63_641
*5012 FILLER_63_653
*5013 FILLER_63_665
*5014 FILLER_63_69
*5015 FILLER_63_81
*5016 FILLER_63_93
*5017 FILLER_64_109
*5018 FILLER_64_121
*5019 FILLER_64_133
*5020 FILLER_64_139
*5021 FILLER_64_141
*5022 FILLER_64_153
*5023 FILLER_64_165
*5024 FILLER_64_177
*5025 FILLER_64_18
*5026 FILLER_64_189
*5027 FILLER_64_195
*5028 FILLER_64_197
*5029 FILLER_64_209
*5030 FILLER_64_221
*5031 FILLER_64_233
*5032 FILLER_64_245
*5033 FILLER_64_251
*5034 FILLER_64_253
*5035 FILLER_64_26
*5036 FILLER_64_265
*5037 FILLER_64_277
*5038 FILLER_64_289
*5039 FILLER_64_29
*5040 FILLER_64_301
*5041 FILLER_64_307
*5042 FILLER_64_309
*5043 FILLER_64_321
*5044 FILLER_64_333
*5045 FILLER_64_345
*5046 FILLER_64_357
*5047 FILLER_64_363
*5048 FILLER_64_365
*5049 FILLER_64_377
*5050 FILLER_64_389
*5051 FILLER_64_401
*5052 FILLER_64_41
*5053 FILLER_64_413
*5054 FILLER_64_419
*5055 FILLER_64_421
*5056 FILLER_64_433
*5057 FILLER_64_445
*5058 FILLER_64_457
*5059 FILLER_64_469
*5060 FILLER_64_475
*5061 FILLER_64_477
*5062 FILLER_64_489
*5063 FILLER_64_501
*5064 FILLER_64_513
*5065 FILLER_64_525
*5066 FILLER_64_53
*5067 FILLER_64_531
*5068 FILLER_64_533
*5069 FILLER_64_545
*5070 FILLER_64_557
*5071 FILLER_64_569
*5072 FILLER_64_581
*5073 FILLER_64_587
*5074 FILLER_64_589
*5075 FILLER_64_6
*5076 FILLER_64_601
*5077 FILLER_64_613
*5078 FILLER_64_625
*5079 FILLER_64_637
*5080 FILLER_64_643
*5081 FILLER_64_645
*5082 FILLER_64_65
*5083 FILLER_64_657
*5084 FILLER_64_77
*5085 FILLER_64_83
*5086 FILLER_64_85
*5087 FILLER_64_97
*5088 FILLER_65_105
*5089 FILLER_65_111
*5090 FILLER_65_113
*5091 FILLER_65_125
*5092 FILLER_65_137
*5093 FILLER_65_149
*5094 FILLER_65_15
*5095 FILLER_65_161
*5096 FILLER_65_167
*5097 FILLER_65_169
*5098 FILLER_65_181
*5099 FILLER_65_193
*5100 FILLER_65_205
*5101 FILLER_65_217
*5102 FILLER_65_223
*5103 FILLER_65_225
*5104 FILLER_65_237
*5105 FILLER_65_249
*5106 FILLER_65_261
*5107 FILLER_65_27
*5108 FILLER_65_273
*5109 FILLER_65_279
*5110 FILLER_65_281
*5111 FILLER_65_293
*5112 FILLER_65_3
*5113 FILLER_65_305
*5114 FILLER_65_317
*5115 FILLER_65_329
*5116 FILLER_65_335
*5117 FILLER_65_337
*5118 FILLER_65_349
*5119 FILLER_65_361
*5120 FILLER_65_373
*5121 FILLER_65_385
*5122 FILLER_65_39
*5123 FILLER_65_391
*5124 FILLER_65_393
*5125 FILLER_65_405
*5126 FILLER_65_417
*5127 FILLER_65_429
*5128 FILLER_65_441
*5129 FILLER_65_447
*5130 FILLER_65_449
*5131 FILLER_65_461
*5132 FILLER_65_473
*5133 FILLER_65_485
*5134 FILLER_65_497
*5135 FILLER_65_503
*5136 FILLER_65_505
*5137 FILLER_65_51
*5138 FILLER_65_517
*5139 FILLER_65_529
*5140 FILLER_65_541
*5141 FILLER_65_55
*5142 FILLER_65_553
*5143 FILLER_65_559
*5144 FILLER_65_561
*5145 FILLER_65_57
*5146 FILLER_65_573
*5147 FILLER_65_585
*5148 FILLER_65_597
*5149 FILLER_65_609
*5150 FILLER_65_615
*5151 FILLER_65_617
*5152 FILLER_65_629
*5153 FILLER_65_641
*5154 FILLER_65_653
*5155 FILLER_65_69
*5156 FILLER_65_81
*5157 FILLER_65_93
*5158 FILLER_66_109
*5159 FILLER_66_121
*5160 FILLER_66_133
*5161 FILLER_66_139
*5162 FILLER_66_141
*5163 FILLER_66_15
*5164 FILLER_66_153
*5165 FILLER_66_165
*5166 FILLER_66_177
*5167 FILLER_66_189
*5168 FILLER_66_195
*5169 FILLER_66_197
*5170 FILLER_66_209
*5171 FILLER_66_221
*5172 FILLER_66_233
*5173 FILLER_66_245
*5174 FILLER_66_251
*5175 FILLER_66_253
*5176 FILLER_66_265
*5177 FILLER_66_27
*5178 FILLER_66_277
*5179 FILLER_66_289
*5180 FILLER_66_29
*5181 FILLER_66_3
*5182 FILLER_66_301
*5183 FILLER_66_307
*5184 FILLER_66_309
*5185 FILLER_66_321
*5186 FILLER_66_333
*5187 FILLER_66_345
*5188 FILLER_66_357
*5189 FILLER_66_363
*5190 FILLER_66_365
*5191 FILLER_66_377
*5192 FILLER_66_389
*5193 FILLER_66_401
*5194 FILLER_66_41
*5195 FILLER_66_413
*5196 FILLER_66_419
*5197 FILLER_66_421
*5198 FILLER_66_433
*5199 FILLER_66_445
*5200 FILLER_66_457
*5201 FILLER_66_469
*5202 FILLER_66_475
*5203 FILLER_66_477
*5204 FILLER_66_489
*5205 FILLER_66_501
*5206 FILLER_66_513
*5207 FILLER_66_525
*5208 FILLER_66_53
*5209 FILLER_66_531
*5210 FILLER_66_533
*5211 FILLER_66_545
*5212 FILLER_66_557
*5213 FILLER_66_569
*5214 FILLER_66_581
*5215 FILLER_66_587
*5216 FILLER_66_589
*5217 FILLER_66_601
*5218 FILLER_66_613
*5219 FILLER_66_625
*5220 FILLER_66_637
*5221 FILLER_66_643
*5222 FILLER_66_645
*5223 FILLER_66_65
*5224 FILLER_66_657
*5225 FILLER_66_77
*5226 FILLER_66_83
*5227 FILLER_66_85
*5228 FILLER_66_97
*5229 FILLER_67_105
*5230 FILLER_67_111
*5231 FILLER_67_113
*5232 FILLER_67_125
*5233 FILLER_67_137
*5234 FILLER_67_149
*5235 FILLER_67_15
*5236 FILLER_67_161
*5237 FILLER_67_167
*5238 FILLER_67_169
*5239 FILLER_67_181
*5240 FILLER_67_193
*5241 FILLER_67_205
*5242 FILLER_67_217
*5243 FILLER_67_223
*5244 FILLER_67_225
*5245 FILLER_67_237
*5246 FILLER_67_249
*5247 FILLER_67_261
*5248 FILLER_67_27
*5249 FILLER_67_273
*5250 FILLER_67_279
*5251 FILLER_67_281
*5252 FILLER_67_293
*5253 FILLER_67_3
*5254 FILLER_67_305
*5255 FILLER_67_317
*5256 FILLER_67_329
*5257 FILLER_67_335
*5258 FILLER_67_337
*5259 FILLER_67_349
*5260 FILLER_67_361
*5261 FILLER_67_373
*5262 FILLER_67_385
*5263 FILLER_67_39
*5264 FILLER_67_391
*5265 FILLER_67_393
*5266 FILLER_67_405
*5267 FILLER_67_417
*5268 FILLER_67_429
*5269 FILLER_67_441
*5270 FILLER_67_447
*5271 FILLER_67_449
*5272 FILLER_67_461
*5273 FILLER_67_473
*5274 FILLER_67_485
*5275 FILLER_67_497
*5276 FILLER_67_503
*5277 FILLER_67_505
*5278 FILLER_67_51
*5279 FILLER_67_517
*5280 FILLER_67_529
*5281 FILLER_67_541
*5282 FILLER_67_55
*5283 FILLER_67_553
*5284 FILLER_67_559
*5285 FILLER_67_561
*5286 FILLER_67_57
*5287 FILLER_67_573
*5288 FILLER_67_585
*5289 FILLER_67_597
*5290 FILLER_67_609
*5291 FILLER_67_615
*5292 FILLER_67_617
*5293 FILLER_67_629
*5294 FILLER_67_641
*5295 FILLER_67_653
*5296 FILLER_67_69
*5297 FILLER_67_81
*5298 FILLER_67_93
*5299 FILLER_68_109
*5300 FILLER_68_121
*5301 FILLER_68_133
*5302 FILLER_68_139
*5303 FILLER_68_141
*5304 FILLER_68_15
*5305 FILLER_68_153
*5306 FILLER_68_165
*5307 FILLER_68_177
*5308 FILLER_68_189
*5309 FILLER_68_195
*5310 FILLER_68_197
*5311 FILLER_68_209
*5312 FILLER_68_221
*5313 FILLER_68_233
*5314 FILLER_68_245
*5315 FILLER_68_251
*5316 FILLER_68_253
*5317 FILLER_68_265
*5318 FILLER_68_27
*5319 FILLER_68_277
*5320 FILLER_68_289
*5321 FILLER_68_29
*5322 FILLER_68_3
*5323 FILLER_68_301
*5324 FILLER_68_307
*5325 FILLER_68_309
*5326 FILLER_68_321
*5327 FILLER_68_333
*5328 FILLER_68_345
*5329 FILLER_68_357
*5330 FILLER_68_363
*5331 FILLER_68_365
*5332 FILLER_68_377
*5333 FILLER_68_389
*5334 FILLER_68_401
*5335 FILLER_68_41
*5336 FILLER_68_413
*5337 FILLER_68_419
*5338 FILLER_68_421
*5339 FILLER_68_433
*5340 FILLER_68_445
*5341 FILLER_68_457
*5342 FILLER_68_469
*5343 FILLER_68_475
*5344 FILLER_68_477
*5345 FILLER_68_489
*5346 FILLER_68_501
*5347 FILLER_68_513
*5348 FILLER_68_525
*5349 FILLER_68_53
*5350 FILLER_68_531
*5351 FILLER_68_533
*5352 FILLER_68_545
*5353 FILLER_68_557
*5354 FILLER_68_569
*5355 FILLER_68_581
*5356 FILLER_68_587
*5357 FILLER_68_589
*5358 FILLER_68_601
*5359 FILLER_68_613
*5360 FILLER_68_625
*5361 FILLER_68_637
*5362 FILLER_68_643
*5363 FILLER_68_645
*5364 FILLER_68_65
*5365 FILLER_68_657
*5366 FILLER_68_665
*5367 FILLER_68_77
*5368 FILLER_68_83
*5369 FILLER_68_85
*5370 FILLER_68_97
*5371 FILLER_69_105
*5372 FILLER_69_111
*5373 FILLER_69_113
*5374 FILLER_69_125
*5375 FILLER_69_137
*5376 FILLER_69_149
*5377 FILLER_69_15
*5378 FILLER_69_161
*5379 FILLER_69_167
*5380 FILLER_69_169
*5381 FILLER_69_181
*5382 FILLER_69_193
*5383 FILLER_69_205
*5384 FILLER_69_217
*5385 FILLER_69_223
*5386 FILLER_69_225
*5387 FILLER_69_237
*5388 FILLER_69_249
*5389 FILLER_69_261
*5390 FILLER_69_27
*5391 FILLER_69_273
*5392 FILLER_69_279
*5393 FILLER_69_281
*5394 FILLER_69_293
*5395 FILLER_69_3
*5396 FILLER_69_305
*5397 FILLER_69_317
*5398 FILLER_69_329
*5399 FILLER_69_335
*5400 FILLER_69_337
*5401 FILLER_69_349
*5402 FILLER_69_361
*5403 FILLER_69_373
*5404 FILLER_69_385
*5405 FILLER_69_39
*5406 FILLER_69_391
*5407 FILLER_69_393
*5408 FILLER_69_405
*5409 FILLER_69_417
*5410 FILLER_69_429
*5411 FILLER_69_441
*5412 FILLER_69_447
*5413 FILLER_69_449
*5414 FILLER_69_461
*5415 FILLER_69_473
*5416 FILLER_69_485
*5417 FILLER_69_497
*5418 FILLER_69_503
*5419 FILLER_69_505
*5420 FILLER_69_51
*5421 FILLER_69_517
*5422 FILLER_69_529
*5423 FILLER_69_541
*5424 FILLER_69_55
*5425 FILLER_69_553
*5426 FILLER_69_559
*5427 FILLER_69_561
*5428 FILLER_69_57
*5429 FILLER_69_573
*5430 FILLER_69_585
*5431 FILLER_69_597
*5432 FILLER_69_609
*5433 FILLER_69_615
*5434 FILLER_69_617
*5435 FILLER_69_629
*5436 FILLER_69_641
*5437 FILLER_69_653
*5438 FILLER_69_69
*5439 FILLER_69_81
*5440 FILLER_69_93
*5441 FILLER_6_109
*5442 FILLER_6_121
*5443 FILLER_6_133
*5444 FILLER_6_139
*5445 FILLER_6_141
*5446 FILLER_6_15
*5447 FILLER_6_153
*5448 FILLER_6_165
*5449 FILLER_6_177
*5450 FILLER_6_189
*5451 FILLER_6_195
*5452 FILLER_6_197
*5453 FILLER_6_209
*5454 FILLER_6_221
*5455 FILLER_6_233
*5456 FILLER_6_245
*5457 FILLER_6_251
*5458 FILLER_6_253
*5459 FILLER_6_265
*5460 FILLER_6_27
*5461 FILLER_6_277
*5462 FILLER_6_289
*5463 FILLER_6_29
*5464 FILLER_6_3
*5465 FILLER_6_301
*5466 FILLER_6_307
*5467 FILLER_6_309
*5468 FILLER_6_321
*5469 FILLER_6_333
*5470 FILLER_6_345
*5471 FILLER_6_357
*5472 FILLER_6_363
*5473 FILLER_6_365
*5474 FILLER_6_377
*5475 FILLER_6_389
*5476 FILLER_6_401
*5477 FILLER_6_41
*5478 FILLER_6_413
*5479 FILLER_6_419
*5480 FILLER_6_421
*5481 FILLER_6_433
*5482 FILLER_6_445
*5483 FILLER_6_457
*5484 FILLER_6_469
*5485 FILLER_6_475
*5486 FILLER_6_477
*5487 FILLER_6_489
*5488 FILLER_6_501
*5489 FILLER_6_513
*5490 FILLER_6_525
*5491 FILLER_6_53
*5492 FILLER_6_531
*5493 FILLER_6_533
*5494 FILLER_6_545
*5495 FILLER_6_557
*5496 FILLER_6_569
*5497 FILLER_6_581
*5498 FILLER_6_587
*5499 FILLER_6_589
*5500 FILLER_6_601
*5501 FILLER_6_613
*5502 FILLER_6_625
*5503 FILLER_6_637
*5504 FILLER_6_643
*5505 FILLER_6_645
*5506 FILLER_6_65
*5507 FILLER_6_657
*5508 FILLER_6_665
*5509 FILLER_6_77
*5510 FILLER_6_83
*5511 FILLER_6_85
*5512 FILLER_6_97
*5513 FILLER_70_109
*5514 FILLER_70_121
*5515 FILLER_70_133
*5516 FILLER_70_139
*5517 FILLER_70_141
*5518 FILLER_70_15
*5519 FILLER_70_153
*5520 FILLER_70_165
*5521 FILLER_70_177
*5522 FILLER_70_189
*5523 FILLER_70_195
*5524 FILLER_70_197
*5525 FILLER_70_209
*5526 FILLER_70_221
*5527 FILLER_70_233
*5528 FILLER_70_245
*5529 FILLER_70_251
*5530 FILLER_70_253
*5531 FILLER_70_265
*5532 FILLER_70_27
*5533 FILLER_70_277
*5534 FILLER_70_289
*5535 FILLER_70_29
*5536 FILLER_70_3
*5537 FILLER_70_301
*5538 FILLER_70_307
*5539 FILLER_70_309
*5540 FILLER_70_321
*5541 FILLER_70_333
*5542 FILLER_70_345
*5543 FILLER_70_357
*5544 FILLER_70_363
*5545 FILLER_70_365
*5546 FILLER_70_377
*5547 FILLER_70_389
*5548 FILLER_70_401
*5549 FILLER_70_41
*5550 FILLER_70_413
*5551 FILLER_70_419
*5552 FILLER_70_421
*5553 FILLER_70_433
*5554 FILLER_70_445
*5555 FILLER_70_457
*5556 FILLER_70_469
*5557 FILLER_70_475
*5558 FILLER_70_477
*5559 FILLER_70_489
*5560 FILLER_70_501
*5561 FILLER_70_513
*5562 FILLER_70_525
*5563 FILLER_70_53
*5564 FILLER_70_531
*5565 FILLER_70_533
*5566 FILLER_70_545
*5567 FILLER_70_557
*5568 FILLER_70_569
*5569 FILLER_70_581
*5570 FILLER_70_587
*5571 FILLER_70_589
*5572 FILLER_70_601
*5573 FILLER_70_613
*5574 FILLER_70_625
*5575 FILLER_70_637
*5576 FILLER_70_643
*5577 FILLER_70_645
*5578 FILLER_70_65
*5579 FILLER_70_657
*5580 FILLER_70_665
*5581 FILLER_70_77
*5582 FILLER_70_83
*5583 FILLER_70_85
*5584 FILLER_70_97
*5585 FILLER_71_105
*5586 FILLER_71_111
*5587 FILLER_71_113
*5588 FILLER_71_125
*5589 FILLER_71_137
*5590 FILLER_71_149
*5591 FILLER_71_15
*5592 FILLER_71_161
*5593 FILLER_71_167
*5594 FILLER_71_169
*5595 FILLER_71_181
*5596 FILLER_71_193
*5597 FILLER_71_205
*5598 FILLER_71_217
*5599 FILLER_71_223
*5600 FILLER_71_225
*5601 FILLER_71_237
*5602 FILLER_71_249
*5603 FILLER_71_261
*5604 FILLER_71_27
*5605 FILLER_71_273
*5606 FILLER_71_279
*5607 FILLER_71_281
*5608 FILLER_71_293
*5609 FILLER_71_3
*5610 FILLER_71_305
*5611 FILLER_71_317
*5612 FILLER_71_329
*5613 FILLER_71_335
*5614 FILLER_71_337
*5615 FILLER_71_349
*5616 FILLER_71_361
*5617 FILLER_71_373
*5618 FILLER_71_385
*5619 FILLER_71_39
*5620 FILLER_71_391
*5621 FILLER_71_393
*5622 FILLER_71_405
*5623 FILLER_71_417
*5624 FILLER_71_429
*5625 FILLER_71_441
*5626 FILLER_71_447
*5627 FILLER_71_449
*5628 FILLER_71_461
*5629 FILLER_71_473
*5630 FILLER_71_485
*5631 FILLER_71_497
*5632 FILLER_71_503
*5633 FILLER_71_505
*5634 FILLER_71_51
*5635 FILLER_71_517
*5636 FILLER_71_529
*5637 FILLER_71_541
*5638 FILLER_71_55
*5639 FILLER_71_553
*5640 FILLER_71_559
*5641 FILLER_71_561
*5642 FILLER_71_57
*5643 FILLER_71_573
*5644 FILLER_71_585
*5645 FILLER_71_597
*5646 FILLER_71_609
*5647 FILLER_71_615
*5648 FILLER_71_617
*5649 FILLER_71_629
*5650 FILLER_71_641
*5651 FILLER_71_653
*5652 FILLER_71_665
*5653 FILLER_71_69
*5654 FILLER_71_81
*5655 FILLER_71_93
*5656 FILLER_72_109
*5657 FILLER_72_121
*5658 FILLER_72_133
*5659 FILLER_72_139
*5660 FILLER_72_141
*5661 FILLER_72_15
*5662 FILLER_72_153
*5663 FILLER_72_165
*5664 FILLER_72_177
*5665 FILLER_72_189
*5666 FILLER_72_195
*5667 FILLER_72_197
*5668 FILLER_72_209
*5669 FILLER_72_221
*5670 FILLER_72_233
*5671 FILLER_72_245
*5672 FILLER_72_251
*5673 FILLER_72_253
*5674 FILLER_72_265
*5675 FILLER_72_27
*5676 FILLER_72_277
*5677 FILLER_72_289
*5678 FILLER_72_29
*5679 FILLER_72_3
*5680 FILLER_72_301
*5681 FILLER_72_307
*5682 FILLER_72_309
*5683 FILLER_72_321
*5684 FILLER_72_333
*5685 FILLER_72_345
*5686 FILLER_72_357
*5687 FILLER_72_363
*5688 FILLER_72_365
*5689 FILLER_72_377
*5690 FILLER_72_389
*5691 FILLER_72_401
*5692 FILLER_72_41
*5693 FILLER_72_413
*5694 FILLER_72_419
*5695 FILLER_72_421
*5696 FILLER_72_433
*5697 FILLER_72_445
*5698 FILLER_72_457
*5699 FILLER_72_469
*5700 FILLER_72_475
*5701 FILLER_72_477
*5702 FILLER_72_489
*5703 FILLER_72_501
*5704 FILLER_72_513
*5705 FILLER_72_525
*5706 FILLER_72_53
*5707 FILLER_72_531
*5708 FILLER_72_533
*5709 FILLER_72_545
*5710 FILLER_72_557
*5711 FILLER_72_569
*5712 FILLER_72_581
*5713 FILLER_72_587
*5714 FILLER_72_589
*5715 FILLER_72_601
*5716 FILLER_72_613
*5717 FILLER_72_625
*5718 FILLER_72_637
*5719 FILLER_72_643
*5720 FILLER_72_645
*5721 FILLER_72_65
*5722 FILLER_72_657
*5723 FILLER_72_665
*5724 FILLER_72_77
*5725 FILLER_72_83
*5726 FILLER_72_85
*5727 FILLER_72_97
*5728 FILLER_73_105
*5729 FILLER_73_111
*5730 FILLER_73_113
*5731 FILLER_73_125
*5732 FILLER_73_137
*5733 FILLER_73_149
*5734 FILLER_73_15
*5735 FILLER_73_161
*5736 FILLER_73_167
*5737 FILLER_73_169
*5738 FILLER_73_181
*5739 FILLER_73_193
*5740 FILLER_73_205
*5741 FILLER_73_217
*5742 FILLER_73_223
*5743 FILLER_73_225
*5744 FILLER_73_237
*5745 FILLER_73_249
*5746 FILLER_73_261
*5747 FILLER_73_27
*5748 FILLER_73_273
*5749 FILLER_73_279
*5750 FILLER_73_281
*5751 FILLER_73_293
*5752 FILLER_73_3
*5753 FILLER_73_305
*5754 FILLER_73_317
*5755 FILLER_73_329
*5756 FILLER_73_335
*5757 FILLER_73_337
*5758 FILLER_73_349
*5759 FILLER_73_361
*5760 FILLER_73_373
*5761 FILLER_73_385
*5762 FILLER_73_39
*5763 FILLER_73_391
*5764 FILLER_73_393
*5765 FILLER_73_405
*5766 FILLER_73_417
*5767 FILLER_73_429
*5768 FILLER_73_441
*5769 FILLER_73_447
*5770 FILLER_73_449
*5771 FILLER_73_461
*5772 FILLER_73_473
*5773 FILLER_73_485
*5774 FILLER_73_497
*5775 FILLER_73_503
*5776 FILLER_73_505
*5777 FILLER_73_51
*5778 FILLER_73_517
*5779 FILLER_73_529
*5780 FILLER_73_541
*5781 FILLER_73_55
*5782 FILLER_73_553
*5783 FILLER_73_559
*5784 FILLER_73_561
*5785 FILLER_73_57
*5786 FILLER_73_573
*5787 FILLER_73_585
*5788 FILLER_73_597
*5789 FILLER_73_609
*5790 FILLER_73_615
*5791 FILLER_73_617
*5792 FILLER_73_629
*5793 FILLER_73_641
*5794 FILLER_73_653
*5795 FILLER_73_665
*5796 FILLER_73_69
*5797 FILLER_73_81
*5798 FILLER_73_93
*5799 FILLER_74_109
*5800 FILLER_74_121
*5801 FILLER_74_133
*5802 FILLER_74_139
*5803 FILLER_74_141
*5804 FILLER_74_15
*5805 FILLER_74_153
*5806 FILLER_74_165
*5807 FILLER_74_177
*5808 FILLER_74_189
*5809 FILLER_74_195
*5810 FILLER_74_197
*5811 FILLER_74_209
*5812 FILLER_74_221
*5813 FILLER_74_233
*5814 FILLER_74_245
*5815 FILLER_74_251
*5816 FILLER_74_253
*5817 FILLER_74_265
*5818 FILLER_74_27
*5819 FILLER_74_277
*5820 FILLER_74_289
*5821 FILLER_74_29
*5822 FILLER_74_3
*5823 FILLER_74_301
*5824 FILLER_74_307
*5825 FILLER_74_309
*5826 FILLER_74_321
*5827 FILLER_74_333
*5828 FILLER_74_345
*5829 FILLER_74_357
*5830 FILLER_74_363
*5831 FILLER_74_365
*5832 FILLER_74_377
*5833 FILLER_74_389
*5834 FILLER_74_401
*5835 FILLER_74_41
*5836 FILLER_74_413
*5837 FILLER_74_419
*5838 FILLER_74_421
*5839 FILLER_74_433
*5840 FILLER_74_445
*5841 FILLER_74_457
*5842 FILLER_74_469
*5843 FILLER_74_475
*5844 FILLER_74_477
*5845 FILLER_74_489
*5846 FILLER_74_501
*5847 FILLER_74_513
*5848 FILLER_74_525
*5849 FILLER_74_53
*5850 FILLER_74_531
*5851 FILLER_74_533
*5852 FILLER_74_545
*5853 FILLER_74_557
*5854 FILLER_74_569
*5855 FILLER_74_581
*5856 FILLER_74_587
*5857 FILLER_74_589
*5858 FILLER_74_601
*5859 FILLER_74_613
*5860 FILLER_74_625
*5861 FILLER_74_637
*5862 FILLER_74_643
*5863 FILLER_74_645
*5864 FILLER_74_65
*5865 FILLER_74_657
*5866 FILLER_74_665
*5867 FILLER_74_77
*5868 FILLER_74_83
*5869 FILLER_74_85
*5870 FILLER_74_97
*5871 FILLER_75_105
*5872 FILLER_75_111
*5873 FILLER_75_113
*5874 FILLER_75_125
*5875 FILLER_75_137
*5876 FILLER_75_149
*5877 FILLER_75_15
*5878 FILLER_75_161
*5879 FILLER_75_167
*5880 FILLER_75_169
*5881 FILLER_75_181
*5882 FILLER_75_193
*5883 FILLER_75_205
*5884 FILLER_75_217
*5885 FILLER_75_223
*5886 FILLER_75_225
*5887 FILLER_75_237
*5888 FILLER_75_249
*5889 FILLER_75_261
*5890 FILLER_75_27
*5891 FILLER_75_273
*5892 FILLER_75_279
*5893 FILLER_75_281
*5894 FILLER_75_293
*5895 FILLER_75_3
*5896 FILLER_75_305
*5897 FILLER_75_317
*5898 FILLER_75_329
*5899 FILLER_75_335
*5900 FILLER_75_337
*5901 FILLER_75_349
*5902 FILLER_75_361
*5903 FILLER_75_373
*5904 FILLER_75_385
*5905 FILLER_75_39
*5906 FILLER_75_391
*5907 FILLER_75_393
*5908 FILLER_75_405
*5909 FILLER_75_417
*5910 FILLER_75_429
*5911 FILLER_75_441
*5912 FILLER_75_447
*5913 FILLER_75_449
*5914 FILLER_75_461
*5915 FILLER_75_473
*5916 FILLER_75_485
*5917 FILLER_75_497
*5918 FILLER_75_503
*5919 FILLER_75_505
*5920 FILLER_75_51
*5921 FILLER_75_517
*5922 FILLER_75_529
*5923 FILLER_75_541
*5924 FILLER_75_55
*5925 FILLER_75_553
*5926 FILLER_75_559
*5927 FILLER_75_561
*5928 FILLER_75_57
*5929 FILLER_75_573
*5930 FILLER_75_585
*5931 FILLER_75_597
*5932 FILLER_75_609
*5933 FILLER_75_615
*5934 FILLER_75_617
*5935 FILLER_75_629
*5936 FILLER_75_641
*5937 FILLER_75_653
*5938 FILLER_75_665
*5939 FILLER_75_69
*5940 FILLER_75_81
*5941 FILLER_75_93
*5942 FILLER_76_109
*5943 FILLER_76_121
*5944 FILLER_76_133
*5945 FILLER_76_139
*5946 FILLER_76_141
*5947 FILLER_76_15
*5948 FILLER_76_153
*5949 FILLER_76_165
*5950 FILLER_76_177
*5951 FILLER_76_189
*5952 FILLER_76_195
*5953 FILLER_76_197
*5954 FILLER_76_209
*5955 FILLER_76_221
*5956 FILLER_76_233
*5957 FILLER_76_245
*5958 FILLER_76_251
*5959 FILLER_76_253
*5960 FILLER_76_265
*5961 FILLER_76_27
*5962 FILLER_76_277
*5963 FILLER_76_289
*5964 FILLER_76_29
*5965 FILLER_76_3
*5966 FILLER_76_301
*5967 FILLER_76_307
*5968 FILLER_76_309
*5969 FILLER_76_321
*5970 FILLER_76_333
*5971 FILLER_76_345
*5972 FILLER_76_357
*5973 FILLER_76_363
*5974 FILLER_76_365
*5975 FILLER_76_377
*5976 FILLER_76_389
*5977 FILLER_76_401
*5978 FILLER_76_41
*5979 FILLER_76_413
*5980 FILLER_76_419
*5981 FILLER_76_421
*5982 FILLER_76_433
*5983 FILLER_76_445
*5984 FILLER_76_457
*5985 FILLER_76_469
*5986 FILLER_76_475
*5987 FILLER_76_477
*5988 FILLER_76_489
*5989 FILLER_76_501
*5990 FILLER_76_513
*5991 FILLER_76_525
*5992 FILLER_76_53
*5993 FILLER_76_531
*5994 FILLER_76_533
*5995 FILLER_76_545
*5996 FILLER_76_557
*5997 FILLER_76_569
*5998 FILLER_76_581
*5999 FILLER_76_587
*6000 FILLER_76_589
*6001 FILLER_76_601
*6002 FILLER_76_613
*6003 FILLER_76_625
*6004 FILLER_76_637
*6005 FILLER_76_643
*6006 FILLER_76_645
*6007 FILLER_76_65
*6008 FILLER_76_657
*6009 FILLER_76_665
*6010 FILLER_76_77
*6011 FILLER_76_83
*6012 FILLER_76_85
*6013 FILLER_76_97
*6014 FILLER_77_105
*6015 FILLER_77_111
*6016 FILLER_77_113
*6017 FILLER_77_125
*6018 FILLER_77_137
*6019 FILLER_77_149
*6020 FILLER_77_15
*6021 FILLER_77_161
*6022 FILLER_77_167
*6023 FILLER_77_169
*6024 FILLER_77_181
*6025 FILLER_77_193
*6026 FILLER_77_205
*6027 FILLER_77_217
*6028 FILLER_77_223
*6029 FILLER_77_225
*6030 FILLER_77_237
*6031 FILLER_77_249
*6032 FILLER_77_261
*6033 FILLER_77_27
*6034 FILLER_77_273
*6035 FILLER_77_279
*6036 FILLER_77_281
*6037 FILLER_77_293
*6038 FILLER_77_3
*6039 FILLER_77_305
*6040 FILLER_77_317
*6041 FILLER_77_329
*6042 FILLER_77_335
*6043 FILLER_77_337
*6044 FILLER_77_349
*6045 FILLER_77_361
*6046 FILLER_77_373
*6047 FILLER_77_385
*6048 FILLER_77_39
*6049 FILLER_77_391
*6050 FILLER_77_393
*6051 FILLER_77_405
*6052 FILLER_77_417
*6053 FILLER_77_429
*6054 FILLER_77_441
*6055 FILLER_77_447
*6056 FILLER_77_449
*6057 FILLER_77_461
*6058 FILLER_77_473
*6059 FILLER_77_485
*6060 FILLER_77_497
*6061 FILLER_77_503
*6062 FILLER_77_505
*6063 FILLER_77_51
*6064 FILLER_77_517
*6065 FILLER_77_529
*6066 FILLER_77_541
*6067 FILLER_77_55
*6068 FILLER_77_553
*6069 FILLER_77_559
*6070 FILLER_77_561
*6071 FILLER_77_57
*6072 FILLER_77_573
*6073 FILLER_77_585
*6074 FILLER_77_597
*6075 FILLER_77_609
*6076 FILLER_77_615
*6077 FILLER_77_617
*6078 FILLER_77_629
*6079 FILLER_77_641
*6080 FILLER_77_653
*6081 FILLER_77_665
*6082 FILLER_77_69
*6083 FILLER_77_81
*6084 FILLER_77_93
*6085 FILLER_78_109
*6086 FILLER_78_121
*6087 FILLER_78_133
*6088 FILLER_78_139
*6089 FILLER_78_141
*6090 FILLER_78_15
*6091 FILLER_78_153
*6092 FILLER_78_165
*6093 FILLER_78_177
*6094 FILLER_78_189
*6095 FILLER_78_195
*6096 FILLER_78_197
*6097 FILLER_78_209
*6098 FILLER_78_221
*6099 FILLER_78_233
*6100 FILLER_78_245
*6101 FILLER_78_251
*6102 FILLER_78_253
*6103 FILLER_78_265
*6104 FILLER_78_27
*6105 FILLER_78_277
*6106 FILLER_78_289
*6107 FILLER_78_29
*6108 FILLER_78_3
*6109 FILLER_78_301
*6110 FILLER_78_307
*6111 FILLER_78_309
*6112 FILLER_78_321
*6113 FILLER_78_333
*6114 FILLER_78_345
*6115 FILLER_78_357
*6116 FILLER_78_363
*6117 FILLER_78_365
*6118 FILLER_78_377
*6119 FILLER_78_389
*6120 FILLER_78_401
*6121 FILLER_78_41
*6122 FILLER_78_413
*6123 FILLER_78_419
*6124 FILLER_78_421
*6125 FILLER_78_433
*6126 FILLER_78_445
*6127 FILLER_78_457
*6128 FILLER_78_469
*6129 FILLER_78_475
*6130 FILLER_78_477
*6131 FILLER_78_489
*6132 FILLER_78_501
*6133 FILLER_78_513
*6134 FILLER_78_525
*6135 FILLER_78_53
*6136 FILLER_78_531
*6137 FILLER_78_533
*6138 FILLER_78_545
*6139 FILLER_78_557
*6140 FILLER_78_569
*6141 FILLER_78_581
*6142 FILLER_78_587
*6143 FILLER_78_589
*6144 FILLER_78_601
*6145 FILLER_78_613
*6146 FILLER_78_625
*6147 FILLER_78_637
*6148 FILLER_78_643
*6149 FILLER_78_645
*6150 FILLER_78_65
*6151 FILLER_78_657
*6152 FILLER_78_665
*6153 FILLER_78_77
*6154 FILLER_78_83
*6155 FILLER_78_85
*6156 FILLER_78_97
*6157 FILLER_79_105
*6158 FILLER_79_111
*6159 FILLER_79_113
*6160 FILLER_79_125
*6161 FILLER_79_137
*6162 FILLER_79_149
*6163 FILLER_79_15
*6164 FILLER_79_161
*6165 FILLER_79_167
*6166 FILLER_79_169
*6167 FILLER_79_181
*6168 FILLER_79_193
*6169 FILLER_79_205
*6170 FILLER_79_217
*6171 FILLER_79_223
*6172 FILLER_79_225
*6173 FILLER_79_237
*6174 FILLER_79_249
*6175 FILLER_79_261
*6176 FILLER_79_27
*6177 FILLER_79_273
*6178 FILLER_79_279
*6179 FILLER_79_281
*6180 FILLER_79_293
*6181 FILLER_79_3
*6182 FILLER_79_305
*6183 FILLER_79_317
*6184 FILLER_79_329
*6185 FILLER_79_335
*6186 FILLER_79_337
*6187 FILLER_79_349
*6188 FILLER_79_361
*6189 FILLER_79_373
*6190 FILLER_79_385
*6191 FILLER_79_39
*6192 FILLER_79_391
*6193 FILLER_79_393
*6194 FILLER_79_405
*6195 FILLER_79_417
*6196 FILLER_79_429
*6197 FILLER_79_441
*6198 FILLER_79_447
*6199 FILLER_79_449
*6200 FILLER_79_461
*6201 FILLER_79_473
*6202 FILLER_79_485
*6203 FILLER_79_497
*6204 FILLER_79_503
*6205 FILLER_79_505
*6206 FILLER_79_51
*6207 FILLER_79_517
*6208 FILLER_79_529
*6209 FILLER_79_541
*6210 FILLER_79_55
*6211 FILLER_79_553
*6212 FILLER_79_559
*6213 FILLER_79_561
*6214 FILLER_79_57
*6215 FILLER_79_573
*6216 FILLER_79_585
*6217 FILLER_79_597
*6218 FILLER_79_609
*6219 FILLER_79_615
*6220 FILLER_79_617
*6221 FILLER_79_629
*6222 FILLER_79_641
*6223 FILLER_79_653
*6224 FILLER_79_665
*6225 FILLER_79_69
*6226 FILLER_79_81
*6227 FILLER_79_93
*6228 FILLER_7_105
*6229 FILLER_7_111
*6230 FILLER_7_113
*6231 FILLER_7_125
*6232 FILLER_7_137
*6233 FILLER_7_149
*6234 FILLER_7_15
*6235 FILLER_7_161
*6236 FILLER_7_167
*6237 FILLER_7_169
*6238 FILLER_7_181
*6239 FILLER_7_193
*6240 FILLER_7_205
*6241 FILLER_7_217
*6242 FILLER_7_223
*6243 FILLER_7_225
*6244 FILLER_7_237
*6245 FILLER_7_249
*6246 FILLER_7_261
*6247 FILLER_7_27
*6248 FILLER_7_273
*6249 FILLER_7_279
*6250 FILLER_7_281
*6251 FILLER_7_293
*6252 FILLER_7_3
*6253 FILLER_7_305
*6254 FILLER_7_317
*6255 FILLER_7_329
*6256 FILLER_7_335
*6257 FILLER_7_337
*6258 FILLER_7_349
*6259 FILLER_7_361
*6260 FILLER_7_373
*6261 FILLER_7_385
*6262 FILLER_7_39
*6263 FILLER_7_391
*6264 FILLER_7_393
*6265 FILLER_7_405
*6266 FILLER_7_417
*6267 FILLER_7_429
*6268 FILLER_7_441
*6269 FILLER_7_447
*6270 FILLER_7_449
*6271 FILLER_7_461
*6272 FILLER_7_473
*6273 FILLER_7_485
*6274 FILLER_7_497
*6275 FILLER_7_503
*6276 FILLER_7_505
*6277 FILLER_7_51
*6278 FILLER_7_517
*6279 FILLER_7_529
*6280 FILLER_7_541
*6281 FILLER_7_55
*6282 FILLER_7_553
*6283 FILLER_7_559
*6284 FILLER_7_561
*6285 FILLER_7_57
*6286 FILLER_7_573
*6287 FILLER_7_585
*6288 FILLER_7_597
*6289 FILLER_7_609
*6290 FILLER_7_615
*6291 FILLER_7_617
*6292 FILLER_7_629
*6293 FILLER_7_641
*6294 FILLER_7_653
*6295 FILLER_7_665
*6296 FILLER_7_69
*6297 FILLER_7_81
*6298 FILLER_7_93
*6299 FILLER_80_109
*6300 FILLER_80_121
*6301 FILLER_80_133
*6302 FILLER_80_139
*6303 FILLER_80_141
*6304 FILLER_80_15
*6305 FILLER_80_153
*6306 FILLER_80_165
*6307 FILLER_80_177
*6308 FILLER_80_189
*6309 FILLER_80_195
*6310 FILLER_80_197
*6311 FILLER_80_209
*6312 FILLER_80_221
*6313 FILLER_80_233
*6314 FILLER_80_245
*6315 FILLER_80_251
*6316 FILLER_80_253
*6317 FILLER_80_265
*6318 FILLER_80_27
*6319 FILLER_80_277
*6320 FILLER_80_289
*6321 FILLER_80_29
*6322 FILLER_80_3
*6323 FILLER_80_301
*6324 FILLER_80_307
*6325 FILLER_80_309
*6326 FILLER_80_321
*6327 FILLER_80_333
*6328 FILLER_80_345
*6329 FILLER_80_357
*6330 FILLER_80_363
*6331 FILLER_80_365
*6332 FILLER_80_377
*6333 FILLER_80_389
*6334 FILLER_80_401
*6335 FILLER_80_41
*6336 FILLER_80_413
*6337 FILLER_80_419
*6338 FILLER_80_421
*6339 FILLER_80_433
*6340 FILLER_80_445
*6341 FILLER_80_457
*6342 FILLER_80_469
*6343 FILLER_80_475
*6344 FILLER_80_477
*6345 FILLER_80_489
*6346 FILLER_80_501
*6347 FILLER_80_513
*6348 FILLER_80_525
*6349 FILLER_80_53
*6350 FILLER_80_531
*6351 FILLER_80_533
*6352 FILLER_80_545
*6353 FILLER_80_557
*6354 FILLER_80_569
*6355 FILLER_80_581
*6356 FILLER_80_587
*6357 FILLER_80_589
*6358 FILLER_80_601
*6359 FILLER_80_613
*6360 FILLER_80_625
*6361 FILLER_80_637
*6362 FILLER_80_643
*6363 FILLER_80_645
*6364 FILLER_80_65
*6365 FILLER_80_657
*6366 FILLER_80_665
*6367 FILLER_80_77
*6368 FILLER_80_83
*6369 FILLER_80_85
*6370 FILLER_80_97
*6371 FILLER_81_105
*6372 FILLER_81_111
*6373 FILLER_81_113
*6374 FILLER_81_125
*6375 FILLER_81_137
*6376 FILLER_81_149
*6377 FILLER_81_15
*6378 FILLER_81_161
*6379 FILLER_81_167
*6380 FILLER_81_169
*6381 FILLER_81_181
*6382 FILLER_81_193
*6383 FILLER_81_205
*6384 FILLER_81_217
*6385 FILLER_81_223
*6386 FILLER_81_225
*6387 FILLER_81_237
*6388 FILLER_81_249
*6389 FILLER_81_261
*6390 FILLER_81_27
*6391 FILLER_81_273
*6392 FILLER_81_279
*6393 FILLER_81_281
*6394 FILLER_81_293
*6395 FILLER_81_3
*6396 FILLER_81_305
*6397 FILLER_81_317
*6398 FILLER_81_329
*6399 FILLER_81_335
*6400 FILLER_81_337
*6401 FILLER_81_349
*6402 FILLER_81_361
*6403 FILLER_81_373
*6404 FILLER_81_385
*6405 FILLER_81_39
*6406 FILLER_81_391
*6407 FILLER_81_393
*6408 FILLER_81_405
*6409 FILLER_81_417
*6410 FILLER_81_429
*6411 FILLER_81_441
*6412 FILLER_81_447
*6413 FILLER_81_449
*6414 FILLER_81_461
*6415 FILLER_81_473
*6416 FILLER_81_485
*6417 FILLER_81_497
*6418 FILLER_81_503
*6419 FILLER_81_505
*6420 FILLER_81_51
*6421 FILLER_81_517
*6422 FILLER_81_529
*6423 FILLER_81_541
*6424 FILLER_81_55
*6425 FILLER_81_553
*6426 FILLER_81_559
*6427 FILLER_81_561
*6428 FILLER_81_57
*6429 FILLER_81_573
*6430 FILLER_81_585
*6431 FILLER_81_597
*6432 FILLER_81_609
*6433 FILLER_81_615
*6434 FILLER_81_617
*6435 FILLER_81_629
*6436 FILLER_81_641
*6437 FILLER_81_653
*6438 FILLER_81_665
*6439 FILLER_81_69
*6440 FILLER_81_81
*6441 FILLER_81_93
*6442 FILLER_82_109
*6443 FILLER_82_121
*6444 FILLER_82_133
*6445 FILLER_82_139
*6446 FILLER_82_141
*6447 FILLER_82_15
*6448 FILLER_82_153
*6449 FILLER_82_165
*6450 FILLER_82_177
*6451 FILLER_82_189
*6452 FILLER_82_195
*6453 FILLER_82_197
*6454 FILLER_82_209
*6455 FILLER_82_221
*6456 FILLER_82_233
*6457 FILLER_82_245
*6458 FILLER_82_251
*6459 FILLER_82_253
*6460 FILLER_82_265
*6461 FILLER_82_27
*6462 FILLER_82_277
*6463 FILLER_82_289
*6464 FILLER_82_29
*6465 FILLER_82_3
*6466 FILLER_82_301
*6467 FILLER_82_307
*6468 FILLER_82_309
*6469 FILLER_82_321
*6470 FILLER_82_333
*6471 FILLER_82_345
*6472 FILLER_82_357
*6473 FILLER_82_363
*6474 FILLER_82_365
*6475 FILLER_82_377
*6476 FILLER_82_389
*6477 FILLER_82_401
*6478 FILLER_82_41
*6479 FILLER_82_413
*6480 FILLER_82_419
*6481 FILLER_82_421
*6482 FILLER_82_433
*6483 FILLER_82_445
*6484 FILLER_82_457
*6485 FILLER_82_469
*6486 FILLER_82_475
*6487 FILLER_82_477
*6488 FILLER_82_489
*6489 FILLER_82_501
*6490 FILLER_82_513
*6491 FILLER_82_525
*6492 FILLER_82_53
*6493 FILLER_82_531
*6494 FILLER_82_533
*6495 FILLER_82_545
*6496 FILLER_82_557
*6497 FILLER_82_569
*6498 FILLER_82_581
*6499 FILLER_82_587
*6500 FILLER_82_589
*6501 FILLER_82_601
*6502 FILLER_82_613
*6503 FILLER_82_625
*6504 FILLER_82_637
*6505 FILLER_82_643
*6506 FILLER_82_645
*6507 FILLER_82_65
*6508 FILLER_82_657
*6509 FILLER_82_665
*6510 FILLER_82_77
*6511 FILLER_82_83
*6512 FILLER_82_85
*6513 FILLER_82_97
*6514 FILLER_83_105
*6515 FILLER_83_111
*6516 FILLER_83_113
*6517 FILLER_83_125
*6518 FILLER_83_137
*6519 FILLER_83_149
*6520 FILLER_83_15
*6521 FILLER_83_161
*6522 FILLER_83_167
*6523 FILLER_83_169
*6524 FILLER_83_181
*6525 FILLER_83_193
*6526 FILLER_83_205
*6527 FILLER_83_217
*6528 FILLER_83_223
*6529 FILLER_83_225
*6530 FILLER_83_237
*6531 FILLER_83_249
*6532 FILLER_83_261
*6533 FILLER_83_27
*6534 FILLER_83_273
*6535 FILLER_83_279
*6536 FILLER_83_281
*6537 FILLER_83_293
*6538 FILLER_83_3
*6539 FILLER_83_305
*6540 FILLER_83_317
*6541 FILLER_83_329
*6542 FILLER_83_335
*6543 FILLER_83_337
*6544 FILLER_83_349
*6545 FILLER_83_361
*6546 FILLER_83_373
*6547 FILLER_83_385
*6548 FILLER_83_39
*6549 FILLER_83_391
*6550 FILLER_83_393
*6551 FILLER_83_405
*6552 FILLER_83_417
*6553 FILLER_83_429
*6554 FILLER_83_441
*6555 FILLER_83_447
*6556 FILLER_83_449
*6557 FILLER_83_461
*6558 FILLER_83_473
*6559 FILLER_83_485
*6560 FILLER_83_497
*6561 FILLER_83_503
*6562 FILLER_83_505
*6563 FILLER_83_51
*6564 FILLER_83_517
*6565 FILLER_83_529
*6566 FILLER_83_541
*6567 FILLER_83_55
*6568 FILLER_83_553
*6569 FILLER_83_559
*6570 FILLER_83_561
*6571 FILLER_83_57
*6572 FILLER_83_573
*6573 FILLER_83_585
*6574 FILLER_83_597
*6575 FILLER_83_609
*6576 FILLER_83_615
*6577 FILLER_83_617
*6578 FILLER_83_629
*6579 FILLER_83_641
*6580 FILLER_83_653
*6581 FILLER_83_665
*6582 FILLER_83_69
*6583 FILLER_83_81
*6584 FILLER_83_93
*6585 FILLER_84_109
*6586 FILLER_84_121
*6587 FILLER_84_133
*6588 FILLER_84_139
*6589 FILLER_84_141
*6590 FILLER_84_15
*6591 FILLER_84_153
*6592 FILLER_84_165
*6593 FILLER_84_177
*6594 FILLER_84_189
*6595 FILLER_84_195
*6596 FILLER_84_197
*6597 FILLER_84_209
*6598 FILLER_84_221
*6599 FILLER_84_233
*6600 FILLER_84_245
*6601 FILLER_84_251
*6602 FILLER_84_253
*6603 FILLER_84_265
*6604 FILLER_84_27
*6605 FILLER_84_277
*6606 FILLER_84_289
*6607 FILLER_84_29
*6608 FILLER_84_3
*6609 FILLER_84_301
*6610 FILLER_84_307
*6611 FILLER_84_309
*6612 FILLER_84_321
*6613 FILLER_84_333
*6614 FILLER_84_345
*6615 FILLER_84_357
*6616 FILLER_84_363
*6617 FILLER_84_365
*6618 FILLER_84_377
*6619 FILLER_84_389
*6620 FILLER_84_401
*6621 FILLER_84_41
*6622 FILLER_84_413
*6623 FILLER_84_419
*6624 FILLER_84_421
*6625 FILLER_84_433
*6626 FILLER_84_445
*6627 FILLER_84_457
*6628 FILLER_84_469
*6629 FILLER_84_475
*6630 FILLER_84_477
*6631 FILLER_84_489
*6632 FILLER_84_501
*6633 FILLER_84_513
*6634 FILLER_84_525
*6635 FILLER_84_53
*6636 FILLER_84_531
*6637 FILLER_84_533
*6638 FILLER_84_545
*6639 FILLER_84_557
*6640 FILLER_84_569
*6641 FILLER_84_581
*6642 FILLER_84_587
*6643 FILLER_84_589
*6644 FILLER_84_601
*6645 FILLER_84_613
*6646 FILLER_84_625
*6647 FILLER_84_637
*6648 FILLER_84_643
*6649 FILLER_84_645
*6650 FILLER_84_65
*6651 FILLER_84_657
*6652 FILLER_84_665
*6653 FILLER_84_77
*6654 FILLER_84_83
*6655 FILLER_84_85
*6656 FILLER_84_97
*6657 FILLER_85_105
*6658 FILLER_85_111
*6659 FILLER_85_113
*6660 FILLER_85_125
*6661 FILLER_85_137
*6662 FILLER_85_149
*6663 FILLER_85_15
*6664 FILLER_85_161
*6665 FILLER_85_167
*6666 FILLER_85_169
*6667 FILLER_85_181
*6668 FILLER_85_193
*6669 FILLER_85_205
*6670 FILLER_85_217
*6671 FILLER_85_223
*6672 FILLER_85_225
*6673 FILLER_85_237
*6674 FILLER_85_249
*6675 FILLER_85_261
*6676 FILLER_85_27
*6677 FILLER_85_273
*6678 FILLER_85_279
*6679 FILLER_85_281
*6680 FILLER_85_293
*6681 FILLER_85_3
*6682 FILLER_85_305
*6683 FILLER_85_317
*6684 FILLER_85_329
*6685 FILLER_85_335
*6686 FILLER_85_337
*6687 FILLER_85_349
*6688 FILLER_85_361
*6689 FILLER_85_373
*6690 FILLER_85_385
*6691 FILLER_85_39
*6692 FILLER_85_391
*6693 FILLER_85_393
*6694 FILLER_85_405
*6695 FILLER_85_417
*6696 FILLER_85_429
*6697 FILLER_85_441
*6698 FILLER_85_447
*6699 FILLER_85_449
*6700 FILLER_85_461
*6701 FILLER_85_473
*6702 FILLER_85_485
*6703 FILLER_85_497
*6704 FILLER_85_503
*6705 FILLER_85_505
*6706 FILLER_85_51
*6707 FILLER_85_517
*6708 FILLER_85_529
*6709 FILLER_85_541
*6710 FILLER_85_55
*6711 FILLER_85_553
*6712 FILLER_85_559
*6713 FILLER_85_561
*6714 FILLER_85_57
*6715 FILLER_85_573
*6716 FILLER_85_585
*6717 FILLER_85_597
*6718 FILLER_85_609
*6719 FILLER_85_615
*6720 FILLER_85_617
*6721 FILLER_85_629
*6722 FILLER_85_641
*6723 FILLER_85_653
*6724 FILLER_85_665
*6725 FILLER_85_69
*6726 FILLER_85_81
*6727 FILLER_85_93
*6728 FILLER_86_109
*6729 FILLER_86_121
*6730 FILLER_86_133
*6731 FILLER_86_139
*6732 FILLER_86_141
*6733 FILLER_86_15
*6734 FILLER_86_153
*6735 FILLER_86_165
*6736 FILLER_86_177
*6737 FILLER_86_189
*6738 FILLER_86_195
*6739 FILLER_86_197
*6740 FILLER_86_209
*6741 FILLER_86_221
*6742 FILLER_86_233
*6743 FILLER_86_245
*6744 FILLER_86_251
*6745 FILLER_86_253
*6746 FILLER_86_265
*6747 FILLER_86_27
*6748 FILLER_86_277
*6749 FILLER_86_289
*6750 FILLER_86_29
*6751 FILLER_86_3
*6752 FILLER_86_301
*6753 FILLER_86_307
*6754 FILLER_86_309
*6755 FILLER_86_321
*6756 FILLER_86_333
*6757 FILLER_86_345
*6758 FILLER_86_357
*6759 FILLER_86_363
*6760 FILLER_86_365
*6761 FILLER_86_377
*6762 FILLER_86_389
*6763 FILLER_86_401
*6764 FILLER_86_41
*6765 FILLER_86_413
*6766 FILLER_86_419
*6767 FILLER_86_421
*6768 FILLER_86_433
*6769 FILLER_86_445
*6770 FILLER_86_457
*6771 FILLER_86_469
*6772 FILLER_86_475
*6773 FILLER_86_477
*6774 FILLER_86_489
*6775 FILLER_86_501
*6776 FILLER_86_513
*6777 FILLER_86_525
*6778 FILLER_86_53
*6779 FILLER_86_531
*6780 FILLER_86_533
*6781 FILLER_86_545
*6782 FILLER_86_557
*6783 FILLER_86_569
*6784 FILLER_86_581
*6785 FILLER_86_587
*6786 FILLER_86_589
*6787 FILLER_86_601
*6788 FILLER_86_613
*6789 FILLER_86_625
*6790 FILLER_86_637
*6791 FILLER_86_643
*6792 FILLER_86_645
*6793 FILLER_86_65
*6794 FILLER_86_657
*6795 FILLER_86_665
*6796 FILLER_86_77
*6797 FILLER_86_83
*6798 FILLER_86_85
*6799 FILLER_86_97
*6800 FILLER_87_105
*6801 FILLER_87_111
*6802 FILLER_87_113
*6803 FILLER_87_125
*6804 FILLER_87_137
*6805 FILLER_87_149
*6806 FILLER_87_15
*6807 FILLER_87_161
*6808 FILLER_87_167
*6809 FILLER_87_169
*6810 FILLER_87_181
*6811 FILLER_87_193
*6812 FILLER_87_205
*6813 FILLER_87_217
*6814 FILLER_87_223
*6815 FILLER_87_225
*6816 FILLER_87_237
*6817 FILLER_87_249
*6818 FILLER_87_261
*6819 FILLER_87_27
*6820 FILLER_87_273
*6821 FILLER_87_279
*6822 FILLER_87_281
*6823 FILLER_87_293
*6824 FILLER_87_3
*6825 FILLER_87_305
*6826 FILLER_87_317
*6827 FILLER_87_329
*6828 FILLER_87_335
*6829 FILLER_87_337
*6830 FILLER_87_349
*6831 FILLER_87_361
*6832 FILLER_87_373
*6833 FILLER_87_385
*6834 FILLER_87_39
*6835 FILLER_87_391
*6836 FILLER_87_393
*6837 FILLER_87_405
*6838 FILLER_87_417
*6839 FILLER_87_429
*6840 FILLER_87_441
*6841 FILLER_87_447
*6842 FILLER_87_449
*6843 FILLER_87_461
*6844 FILLER_87_473
*6845 FILLER_87_485
*6846 FILLER_87_497
*6847 FILLER_87_503
*6848 FILLER_87_505
*6849 FILLER_87_51
*6850 FILLER_87_517
*6851 FILLER_87_529
*6852 FILLER_87_541
*6853 FILLER_87_55
*6854 FILLER_87_553
*6855 FILLER_87_559
*6856 FILLER_87_561
*6857 FILLER_87_57
*6858 FILLER_87_573
*6859 FILLER_87_585
*6860 FILLER_87_597
*6861 FILLER_87_609
*6862 FILLER_87_615
*6863 FILLER_87_617
*6864 FILLER_87_629
*6865 FILLER_87_641
*6866 FILLER_87_653
*6867 FILLER_87_665
*6868 FILLER_87_69
*6869 FILLER_87_81
*6870 FILLER_87_93
*6871 FILLER_88_109
*6872 FILLER_88_121
*6873 FILLER_88_133
*6874 FILLER_88_139
*6875 FILLER_88_141
*6876 FILLER_88_15
*6877 FILLER_88_153
*6878 FILLER_88_165
*6879 FILLER_88_177
*6880 FILLER_88_189
*6881 FILLER_88_195
*6882 FILLER_88_197
*6883 FILLER_88_209
*6884 FILLER_88_221
*6885 FILLER_88_233
*6886 FILLER_88_245
*6887 FILLER_88_251
*6888 FILLER_88_253
*6889 FILLER_88_265
*6890 FILLER_88_27
*6891 FILLER_88_277
*6892 FILLER_88_289
*6893 FILLER_88_29
*6894 FILLER_88_3
*6895 FILLER_88_301
*6896 FILLER_88_307
*6897 FILLER_88_309
*6898 FILLER_88_321
*6899 FILLER_88_333
*6900 FILLER_88_345
*6901 FILLER_88_357
*6902 FILLER_88_363
*6903 FILLER_88_365
*6904 FILLER_88_377
*6905 FILLER_88_389
*6906 FILLER_88_401
*6907 FILLER_88_41
*6908 FILLER_88_413
*6909 FILLER_88_419
*6910 FILLER_88_421
*6911 FILLER_88_433
*6912 FILLER_88_445
*6913 FILLER_88_457
*6914 FILLER_88_469
*6915 FILLER_88_475
*6916 FILLER_88_477
*6917 FILLER_88_489
*6918 FILLER_88_501
*6919 FILLER_88_513
*6920 FILLER_88_525
*6921 FILLER_88_53
*6922 FILLER_88_531
*6923 FILLER_88_533
*6924 FILLER_88_545
*6925 FILLER_88_557
*6926 FILLER_88_569
*6927 FILLER_88_581
*6928 FILLER_88_587
*6929 FILLER_88_589
*6930 FILLER_88_601
*6931 FILLER_88_613
*6932 FILLER_88_625
*6933 FILLER_88_637
*6934 FILLER_88_643
*6935 FILLER_88_645
*6936 FILLER_88_65
*6937 FILLER_88_657
*6938 FILLER_88_665
*6939 FILLER_88_77
*6940 FILLER_88_83
*6941 FILLER_88_85
*6942 FILLER_88_97
*6943 FILLER_89_105
*6944 FILLER_89_111
*6945 FILLER_89_113
*6946 FILLER_89_125
*6947 FILLER_89_137
*6948 FILLER_89_149
*6949 FILLER_89_15
*6950 FILLER_89_161
*6951 FILLER_89_167
*6952 FILLER_89_169
*6953 FILLER_89_181
*6954 FILLER_89_193
*6955 FILLER_89_205
*6956 FILLER_89_217
*6957 FILLER_89_223
*6958 FILLER_89_225
*6959 FILLER_89_237
*6960 FILLER_89_249
*6961 FILLER_89_261
*6962 FILLER_89_27
*6963 FILLER_89_273
*6964 FILLER_89_279
*6965 FILLER_89_281
*6966 FILLER_89_293
*6967 FILLER_89_3
*6968 FILLER_89_305
*6969 FILLER_89_317
*6970 FILLER_89_329
*6971 FILLER_89_335
*6972 FILLER_89_337
*6973 FILLER_89_349
*6974 FILLER_89_361
*6975 FILLER_89_373
*6976 FILLER_89_385
*6977 FILLER_89_39
*6978 FILLER_89_391
*6979 FILLER_89_393
*6980 FILLER_89_405
*6981 FILLER_89_417
*6982 FILLER_89_429
*6983 FILLER_89_441
*6984 FILLER_89_447
*6985 FILLER_89_449
*6986 FILLER_89_461
*6987 FILLER_89_473
*6988 FILLER_89_485
*6989 FILLER_89_497
*6990 FILLER_89_503
*6991 FILLER_89_505
*6992 FILLER_89_51
*6993 FILLER_89_517
*6994 FILLER_89_529
*6995 FILLER_89_541
*6996 FILLER_89_55
*6997 FILLER_89_553
*6998 FILLER_89_559
*6999 FILLER_89_561
*7000 FILLER_89_57
*7001 FILLER_89_573
*7002 FILLER_89_585
*7003 FILLER_89_597
*7004 FILLER_89_609
*7005 FILLER_89_615
*7006 FILLER_89_617
*7007 FILLER_89_629
*7008 FILLER_89_641
*7009 FILLER_89_653
*7010 FILLER_89_665
*7011 FILLER_89_69
*7012 FILLER_89_81
*7013 FILLER_89_93
*7014 FILLER_8_109
*7015 FILLER_8_121
*7016 FILLER_8_133
*7017 FILLER_8_139
*7018 FILLER_8_141
*7019 FILLER_8_15
*7020 FILLER_8_153
*7021 FILLER_8_165
*7022 FILLER_8_177
*7023 FILLER_8_189
*7024 FILLER_8_195
*7025 FILLER_8_197
*7026 FILLER_8_209
*7027 FILLER_8_221
*7028 FILLER_8_233
*7029 FILLER_8_245
*7030 FILLER_8_251
*7031 FILLER_8_253
*7032 FILLER_8_265
*7033 FILLER_8_27
*7034 FILLER_8_277
*7035 FILLER_8_289
*7036 FILLER_8_29
*7037 FILLER_8_3
*7038 FILLER_8_301
*7039 FILLER_8_307
*7040 FILLER_8_309
*7041 FILLER_8_321
*7042 FILLER_8_333
*7043 FILLER_8_345
*7044 FILLER_8_357
*7045 FILLER_8_363
*7046 FILLER_8_365
*7047 FILLER_8_377
*7048 FILLER_8_389
*7049 FILLER_8_401
*7050 FILLER_8_41
*7051 FILLER_8_413
*7052 FILLER_8_419
*7053 FILLER_8_421
*7054 FILLER_8_433
*7055 FILLER_8_445
*7056 FILLER_8_457
*7057 FILLER_8_469
*7058 FILLER_8_475
*7059 FILLER_8_477
*7060 FILLER_8_489
*7061 FILLER_8_501
*7062 FILLER_8_513
*7063 FILLER_8_525
*7064 FILLER_8_53
*7065 FILLER_8_531
*7066 FILLER_8_533
*7067 FILLER_8_545
*7068 FILLER_8_557
*7069 FILLER_8_569
*7070 FILLER_8_581
*7071 FILLER_8_587
*7072 FILLER_8_589
*7073 FILLER_8_601
*7074 FILLER_8_613
*7075 FILLER_8_625
*7076 FILLER_8_637
*7077 FILLER_8_643
*7078 FILLER_8_645
*7079 FILLER_8_65
*7080 FILLER_8_657
*7081 FILLER_8_665
*7082 FILLER_8_77
*7083 FILLER_8_83
*7084 FILLER_8_85
*7085 FILLER_8_97
*7086 FILLER_90_109
*7087 FILLER_90_121
*7088 FILLER_90_133
*7089 FILLER_90_139
*7090 FILLER_90_141
*7091 FILLER_90_15
*7092 FILLER_90_153
*7093 FILLER_90_165
*7094 FILLER_90_177
*7095 FILLER_90_189
*7096 FILLER_90_195
*7097 FILLER_90_197
*7098 FILLER_90_209
*7099 FILLER_90_221
*7100 FILLER_90_233
*7101 FILLER_90_245
*7102 FILLER_90_251
*7103 FILLER_90_253
*7104 FILLER_90_265
*7105 FILLER_90_27
*7106 FILLER_90_277
*7107 FILLER_90_289
*7108 FILLER_90_29
*7109 FILLER_90_3
*7110 FILLER_90_301
*7111 FILLER_90_307
*7112 FILLER_90_309
*7113 FILLER_90_321
*7114 FILLER_90_333
*7115 FILLER_90_345
*7116 FILLER_90_357
*7117 FILLER_90_363
*7118 FILLER_90_365
*7119 FILLER_90_377
*7120 FILLER_90_389
*7121 FILLER_90_401
*7122 FILLER_90_41
*7123 FILLER_90_413
*7124 FILLER_90_419
*7125 FILLER_90_421
*7126 FILLER_90_433
*7127 FILLER_90_445
*7128 FILLER_90_457
*7129 FILLER_90_469
*7130 FILLER_90_475
*7131 FILLER_90_477
*7132 FILLER_90_489
*7133 FILLER_90_501
*7134 FILLER_90_513
*7135 FILLER_90_525
*7136 FILLER_90_53
*7137 FILLER_90_531
*7138 FILLER_90_533
*7139 FILLER_90_545
*7140 FILLER_90_557
*7141 FILLER_90_569
*7142 FILLER_90_581
*7143 FILLER_90_587
*7144 FILLER_90_589
*7145 FILLER_90_601
*7146 FILLER_90_613
*7147 FILLER_90_625
*7148 FILLER_90_637
*7149 FILLER_90_643
*7150 FILLER_90_645
*7151 FILLER_90_65
*7152 FILLER_90_657
*7153 FILLER_90_665
*7154 FILLER_90_77
*7155 FILLER_90_83
*7156 FILLER_90_85
*7157 FILLER_90_97
*7158 FILLER_91_105
*7159 FILLER_91_111
*7160 FILLER_91_113
*7161 FILLER_91_125
*7162 FILLER_91_137
*7163 FILLER_91_149
*7164 FILLER_91_15
*7165 FILLER_91_161
*7166 FILLER_91_167
*7167 FILLER_91_169
*7168 FILLER_91_181
*7169 FILLER_91_193
*7170 FILLER_91_205
*7171 FILLER_91_217
*7172 FILLER_91_223
*7173 FILLER_91_225
*7174 FILLER_91_237
*7175 FILLER_91_249
*7176 FILLER_91_261
*7177 FILLER_91_27
*7178 FILLER_91_273
*7179 FILLER_91_279
*7180 FILLER_91_281
*7181 FILLER_91_293
*7182 FILLER_91_3
*7183 FILLER_91_305
*7184 FILLER_91_317
*7185 FILLER_91_329
*7186 FILLER_91_335
*7187 FILLER_91_337
*7188 FILLER_91_349
*7189 FILLER_91_361
*7190 FILLER_91_373
*7191 FILLER_91_385
*7192 FILLER_91_39
*7193 FILLER_91_391
*7194 FILLER_91_393
*7195 FILLER_91_405
*7196 FILLER_91_417
*7197 FILLER_91_429
*7198 FILLER_91_441
*7199 FILLER_91_447
*7200 FILLER_91_449
*7201 FILLER_91_461
*7202 FILLER_91_473
*7203 FILLER_91_485
*7204 FILLER_91_497
*7205 FILLER_91_503
*7206 FILLER_91_505
*7207 FILLER_91_51
*7208 FILLER_91_517
*7209 FILLER_91_529
*7210 FILLER_91_541
*7211 FILLER_91_55
*7212 FILLER_91_553
*7213 FILLER_91_559
*7214 FILLER_91_561
*7215 FILLER_91_57
*7216 FILLER_91_573
*7217 FILLER_91_585
*7218 FILLER_91_597
*7219 FILLER_91_609
*7220 FILLER_91_615
*7221 FILLER_91_617
*7222 FILLER_91_629
*7223 FILLER_91_641
*7224 FILLER_91_653
*7225 FILLER_91_665
*7226 FILLER_91_69
*7227 FILLER_91_81
*7228 FILLER_91_93
*7229 FILLER_92_109
*7230 FILLER_92_121
*7231 FILLER_92_133
*7232 FILLER_92_139
*7233 FILLER_92_141
*7234 FILLER_92_15
*7235 FILLER_92_153
*7236 FILLER_92_165
*7237 FILLER_92_177
*7238 FILLER_92_189
*7239 FILLER_92_195
*7240 FILLER_92_197
*7241 FILLER_92_209
*7242 FILLER_92_221
*7243 FILLER_92_233
*7244 FILLER_92_245
*7245 FILLER_92_251
*7246 FILLER_92_253
*7247 FILLER_92_265
*7248 FILLER_92_27
*7249 FILLER_92_277
*7250 FILLER_92_289
*7251 FILLER_92_29
*7252 FILLER_92_3
*7253 FILLER_92_301
*7254 FILLER_92_307
*7255 FILLER_92_309
*7256 FILLER_92_321
*7257 FILLER_92_333
*7258 FILLER_92_345
*7259 FILLER_92_357
*7260 FILLER_92_363
*7261 FILLER_92_365
*7262 FILLER_92_377
*7263 FILLER_92_389
*7264 FILLER_92_401
*7265 FILLER_92_41
*7266 FILLER_92_413
*7267 FILLER_92_419
*7268 FILLER_92_421
*7269 FILLER_92_433
*7270 FILLER_92_445
*7271 FILLER_92_457
*7272 FILLER_92_469
*7273 FILLER_92_475
*7274 FILLER_92_477
*7275 FILLER_92_489
*7276 FILLER_92_501
*7277 FILLER_92_513
*7278 FILLER_92_525
*7279 FILLER_92_53
*7280 FILLER_92_531
*7281 FILLER_92_533
*7282 FILLER_92_545
*7283 FILLER_92_557
*7284 FILLER_92_569
*7285 FILLER_92_581
*7286 FILLER_92_587
*7287 FILLER_92_589
*7288 FILLER_92_601
*7289 FILLER_92_613
*7290 FILLER_92_625
*7291 FILLER_92_637
*7292 FILLER_92_643
*7293 FILLER_92_645
*7294 FILLER_92_65
*7295 FILLER_92_657
*7296 FILLER_92_665
*7297 FILLER_92_77
*7298 FILLER_92_83
*7299 FILLER_92_85
*7300 FILLER_92_97
*7301 FILLER_93_105
*7302 FILLER_93_111
*7303 FILLER_93_113
*7304 FILLER_93_125
*7305 FILLER_93_137
*7306 FILLER_93_149
*7307 FILLER_93_15
*7308 FILLER_93_161
*7309 FILLER_93_167
*7310 FILLER_93_169
*7311 FILLER_93_181
*7312 FILLER_93_193
*7313 FILLER_93_205
*7314 FILLER_93_217
*7315 FILLER_93_223
*7316 FILLER_93_225
*7317 FILLER_93_237
*7318 FILLER_93_249
*7319 FILLER_93_261
*7320 FILLER_93_27
*7321 FILLER_93_273
*7322 FILLER_93_279
*7323 FILLER_93_281
*7324 FILLER_93_293
*7325 FILLER_93_3
*7326 FILLER_93_305
*7327 FILLER_93_317
*7328 FILLER_93_329
*7329 FILLER_93_335
*7330 FILLER_93_337
*7331 FILLER_93_349
*7332 FILLER_93_361
*7333 FILLER_93_373
*7334 FILLER_93_385
*7335 FILLER_93_39
*7336 FILLER_93_391
*7337 FILLER_93_393
*7338 FILLER_93_405
*7339 FILLER_93_417
*7340 FILLER_93_429
*7341 FILLER_93_441
*7342 FILLER_93_447
*7343 FILLER_93_449
*7344 FILLER_93_461
*7345 FILLER_93_473
*7346 FILLER_93_485
*7347 FILLER_93_497
*7348 FILLER_93_503
*7349 FILLER_93_505
*7350 FILLER_93_51
*7351 FILLER_93_517
*7352 FILLER_93_529
*7353 FILLER_93_541
*7354 FILLER_93_55
*7355 FILLER_93_553
*7356 FILLER_93_559
*7357 FILLER_93_561
*7358 FILLER_93_57
*7359 FILLER_93_573
*7360 FILLER_93_585
*7361 FILLER_93_597
*7362 FILLER_93_609
*7363 FILLER_93_615
*7364 FILLER_93_617
*7365 FILLER_93_629
*7366 FILLER_93_641
*7367 FILLER_93_653
*7368 FILLER_93_665
*7369 FILLER_93_69
*7370 FILLER_93_81
*7371 FILLER_93_93
*7372 FILLER_94_109
*7373 FILLER_94_121
*7374 FILLER_94_133
*7375 FILLER_94_139
*7376 FILLER_94_141
*7377 FILLER_94_15
*7378 FILLER_94_153
*7379 FILLER_94_165
*7380 FILLER_94_177
*7381 FILLER_94_189
*7382 FILLER_94_195
*7383 FILLER_94_197
*7384 FILLER_94_209
*7385 FILLER_94_221
*7386 FILLER_94_233
*7387 FILLER_94_245
*7388 FILLER_94_251
*7389 FILLER_94_253
*7390 FILLER_94_265
*7391 FILLER_94_27
*7392 FILLER_94_277
*7393 FILLER_94_289
*7394 FILLER_94_29
*7395 FILLER_94_3
*7396 FILLER_94_301
*7397 FILLER_94_307
*7398 FILLER_94_309
*7399 FILLER_94_321
*7400 FILLER_94_333
*7401 FILLER_94_345
*7402 FILLER_94_357
*7403 FILLER_94_363
*7404 FILLER_94_365
*7405 FILLER_94_377
*7406 FILLER_94_389
*7407 FILLER_94_401
*7408 FILLER_94_41
*7409 FILLER_94_413
*7410 FILLER_94_419
*7411 FILLER_94_421
*7412 FILLER_94_433
*7413 FILLER_94_445
*7414 FILLER_94_457
*7415 FILLER_94_469
*7416 FILLER_94_475
*7417 FILLER_94_477
*7418 FILLER_94_489
*7419 FILLER_94_501
*7420 FILLER_94_513
*7421 FILLER_94_525
*7422 FILLER_94_53
*7423 FILLER_94_531
*7424 FILLER_94_533
*7425 FILLER_94_545
*7426 FILLER_94_557
*7427 FILLER_94_569
*7428 FILLER_94_581
*7429 FILLER_94_587
*7430 FILLER_94_589
*7431 FILLER_94_601
*7432 FILLER_94_613
*7433 FILLER_94_625
*7434 FILLER_94_637
*7435 FILLER_94_643
*7436 FILLER_94_645
*7437 FILLER_94_65
*7438 FILLER_94_657
*7439 FILLER_94_665
*7440 FILLER_94_77
*7441 FILLER_94_83
*7442 FILLER_94_85
*7443 FILLER_94_97
*7444 FILLER_95_105
*7445 FILLER_95_111
*7446 FILLER_95_113
*7447 FILLER_95_125
*7448 FILLER_95_137
*7449 FILLER_95_149
*7450 FILLER_95_15
*7451 FILLER_95_161
*7452 FILLER_95_167
*7453 FILLER_95_169
*7454 FILLER_95_181
*7455 FILLER_95_193
*7456 FILLER_95_205
*7457 FILLER_95_217
*7458 FILLER_95_223
*7459 FILLER_95_225
*7460 FILLER_95_237
*7461 FILLER_95_249
*7462 FILLER_95_261
*7463 FILLER_95_27
*7464 FILLER_95_273
*7465 FILLER_95_279
*7466 FILLER_95_281
*7467 FILLER_95_293
*7468 FILLER_95_3
*7469 FILLER_95_305
*7470 FILLER_95_317
*7471 FILLER_95_329
*7472 FILLER_95_335
*7473 FILLER_95_337
*7474 FILLER_95_349
*7475 FILLER_95_361
*7476 FILLER_95_373
*7477 FILLER_95_385
*7478 FILLER_95_39
*7479 FILLER_95_391
*7480 FILLER_95_393
*7481 FILLER_95_405
*7482 FILLER_95_417
*7483 FILLER_95_429
*7484 FILLER_95_441
*7485 FILLER_95_447
*7486 FILLER_95_449
*7487 FILLER_95_461
*7488 FILLER_95_473
*7489 FILLER_95_485
*7490 FILLER_95_497
*7491 FILLER_95_503
*7492 FILLER_95_505
*7493 FILLER_95_51
*7494 FILLER_95_517
*7495 FILLER_95_529
*7496 FILLER_95_541
*7497 FILLER_95_55
*7498 FILLER_95_553
*7499 FILLER_95_559
*7500 FILLER_95_561
*7501 FILLER_95_57
*7502 FILLER_95_573
*7503 FILLER_95_585
*7504 FILLER_95_597
*7505 FILLER_95_609
*7506 FILLER_95_615
*7507 FILLER_95_617
*7508 FILLER_95_629
*7509 FILLER_95_641
*7510 FILLER_95_653
*7511 FILLER_95_665
*7512 FILLER_95_69
*7513 FILLER_95_81
*7514 FILLER_95_93
*7515 FILLER_96_109
*7516 FILLER_96_121
*7517 FILLER_96_133
*7518 FILLER_96_139
*7519 FILLER_96_141
*7520 FILLER_96_15
*7521 FILLER_96_153
*7522 FILLER_96_165
*7523 FILLER_96_177
*7524 FILLER_96_189
*7525 FILLER_96_195
*7526 FILLER_96_197
*7527 FILLER_96_209
*7528 FILLER_96_221
*7529 FILLER_96_233
*7530 FILLER_96_245
*7531 FILLER_96_251
*7532 FILLER_96_253
*7533 FILLER_96_265
*7534 FILLER_96_27
*7535 FILLER_96_277
*7536 FILLER_96_289
*7537 FILLER_96_29
*7538 FILLER_96_3
*7539 FILLER_96_301
*7540 FILLER_96_307
*7541 FILLER_96_309
*7542 FILLER_96_321
*7543 FILLER_96_333
*7544 FILLER_96_345
*7545 FILLER_96_357
*7546 FILLER_96_363
*7547 FILLER_96_365
*7548 FILLER_96_377
*7549 FILLER_96_389
*7550 FILLER_96_401
*7551 FILLER_96_41
*7552 FILLER_96_413
*7553 FILLER_96_419
*7554 FILLER_96_421
*7555 FILLER_96_433
*7556 FILLER_96_445
*7557 FILLER_96_457
*7558 FILLER_96_469
*7559 FILLER_96_475
*7560 FILLER_96_477
*7561 FILLER_96_489
*7562 FILLER_96_501
*7563 FILLER_96_513
*7564 FILLER_96_525
*7565 FILLER_96_53
*7566 FILLER_96_531
*7567 FILLER_96_533
*7568 FILLER_96_545
*7569 FILLER_96_557
*7570 FILLER_96_569
*7571 FILLER_96_581
*7572 FILLER_96_587
*7573 FILLER_96_589
*7574 FILLER_96_601
*7575 FILLER_96_613
*7576 FILLER_96_625
*7577 FILLER_96_637
*7578 FILLER_96_643
*7579 FILLER_96_645
*7580 FILLER_96_65
*7581 FILLER_96_657
*7582 FILLER_96_665
*7583 FILLER_96_77
*7584 FILLER_96_83
*7585 FILLER_96_85
*7586 FILLER_96_97
*7587 FILLER_97_105
*7588 FILLER_97_111
*7589 FILLER_97_113
*7590 FILLER_97_125
*7591 FILLER_97_137
*7592 FILLER_97_149
*7593 FILLER_97_15
*7594 FILLER_97_161
*7595 FILLER_97_167
*7596 FILLER_97_169
*7597 FILLER_97_181
*7598 FILLER_97_193
*7599 FILLER_97_205
*7600 FILLER_97_217
*7601 FILLER_97_223
*7602 FILLER_97_225
*7603 FILLER_97_237
*7604 FILLER_97_249
*7605 FILLER_97_261
*7606 FILLER_97_27
*7607 FILLER_97_273
*7608 FILLER_97_279
*7609 FILLER_97_281
*7610 FILLER_97_293
*7611 FILLER_97_3
*7612 FILLER_97_305
*7613 FILLER_97_317
*7614 FILLER_97_329
*7615 FILLER_97_335
*7616 FILLER_97_337
*7617 FILLER_97_349
*7618 FILLER_97_361
*7619 FILLER_97_373
*7620 FILLER_97_385
*7621 FILLER_97_39
*7622 FILLER_97_391
*7623 FILLER_97_393
*7624 FILLER_97_405
*7625 FILLER_97_417
*7626 FILLER_97_429
*7627 FILLER_97_441
*7628 FILLER_97_447
*7629 FILLER_97_449
*7630 FILLER_97_461
*7631 FILLER_97_473
*7632 FILLER_97_485
*7633 FILLER_97_497
*7634 FILLER_97_503
*7635 FILLER_97_505
*7636 FILLER_97_51
*7637 FILLER_97_517
*7638 FILLER_97_529
*7639 FILLER_97_541
*7640 FILLER_97_55
*7641 FILLER_97_553
*7642 FILLER_97_559
*7643 FILLER_97_561
*7644 FILLER_97_57
*7645 FILLER_97_573
*7646 FILLER_97_585
*7647 FILLER_97_597
*7648 FILLER_97_609
*7649 FILLER_97_615
*7650 FILLER_97_617
*7651 FILLER_97_629
*7652 FILLER_97_641
*7653 FILLER_97_653
*7654 FILLER_97_665
*7655 FILLER_97_69
*7656 FILLER_97_81
*7657 FILLER_97_93
*7658 FILLER_98_109
*7659 FILLER_98_121
*7660 FILLER_98_133
*7661 FILLER_98_139
*7662 FILLER_98_141
*7663 FILLER_98_15
*7664 FILLER_98_153
*7665 FILLER_98_165
*7666 FILLER_98_177
*7667 FILLER_98_189
*7668 FILLER_98_195
*7669 FILLER_98_197
*7670 FILLER_98_209
*7671 FILLER_98_221
*7672 FILLER_98_233
*7673 FILLER_98_245
*7674 FILLER_98_251
*7675 FILLER_98_253
*7676 FILLER_98_265
*7677 FILLER_98_27
*7678 FILLER_98_277
*7679 FILLER_98_289
*7680 FILLER_98_29
*7681 FILLER_98_3
*7682 FILLER_98_301
*7683 FILLER_98_307
*7684 FILLER_98_309
*7685 FILLER_98_321
*7686 FILLER_98_333
*7687 FILLER_98_345
*7688 FILLER_98_357
*7689 FILLER_98_363
*7690 FILLER_98_365
*7691 FILLER_98_377
*7692 FILLER_98_389
*7693 FILLER_98_401
*7694 FILLER_98_41
*7695 FILLER_98_413
*7696 FILLER_98_419
*7697 FILLER_98_421
*7698 FILLER_98_433
*7699 FILLER_98_445
*7700 FILLER_98_457
*7701 FILLER_98_469
*7702 FILLER_98_475
*7703 FILLER_98_477
*7704 FILLER_98_489
*7705 FILLER_98_501
*7706 FILLER_98_513
*7707 FILLER_98_525
*7708 FILLER_98_53
*7709 FILLER_98_531
*7710 FILLER_98_533
*7711 FILLER_98_545
*7712 FILLER_98_557
*7713 FILLER_98_569
*7714 FILLER_98_581
*7715 FILLER_98_587
*7716 FILLER_98_589
*7717 FILLER_98_601
*7718 FILLER_98_613
*7719 FILLER_98_625
*7720 FILLER_98_637
*7721 FILLER_98_643
*7722 FILLER_98_645
*7723 FILLER_98_65
*7724 FILLER_98_657
*7725 FILLER_98_665
*7726 FILLER_98_77
*7727 FILLER_98_83
*7728 FILLER_98_85
*7729 FILLER_98_97
*7730 FILLER_99_105
*7731 FILLER_99_111
*7732 FILLER_99_113
*7733 FILLER_99_125
*7734 FILLER_99_137
*7735 FILLER_99_149
*7736 FILLER_99_15
*7737 FILLER_99_161
*7738 FILLER_99_167
*7739 FILLER_99_169
*7740 FILLER_99_181
*7741 FILLER_99_193
*7742 FILLER_99_205
*7743 FILLER_99_217
*7744 FILLER_99_223
*7745 FILLER_99_225
*7746 FILLER_99_237
*7747 FILLER_99_249
*7748 FILLER_99_261
*7749 FILLER_99_27
*7750 FILLER_99_273
*7751 FILLER_99_279
*7752 FILLER_99_281
*7753 FILLER_99_293
*7754 FILLER_99_3
*7755 FILLER_99_305
*7756 FILLER_99_317
*7757 FILLER_99_329
*7758 FILLER_99_335
*7759 FILLER_99_337
*7760 FILLER_99_349
*7761 FILLER_99_361
*7762 FILLER_99_373
*7763 FILLER_99_385
*7764 FILLER_99_39
*7765 FILLER_99_391
*7766 FILLER_99_393
*7767 FILLER_99_405
*7768 FILLER_99_417
*7769 FILLER_99_429
*7770 FILLER_99_441
*7771 FILLER_99_447
*7772 FILLER_99_449
*7773 FILLER_99_461
*7774 FILLER_99_473
*7775 FILLER_99_485
*7776 FILLER_99_497
*7777 FILLER_99_503
*7778 FILLER_99_505
*7779 FILLER_99_51
*7780 FILLER_99_517
*7781 FILLER_99_529
*7782 FILLER_99_541
*7783 FILLER_99_55
*7784 FILLER_99_553
*7785 FILLER_99_559
*7786 FILLER_99_561
*7787 FILLER_99_57
*7788 FILLER_99_573
*7789 FILLER_99_585
*7790 FILLER_99_597
*7791 FILLER_99_609
*7792 FILLER_99_615
*7793 FILLER_99_617
*7794 FILLER_99_629
*7795 FILLER_99_641
*7796 FILLER_99_653
*7797 FILLER_99_665
*7798 FILLER_99_69
*7799 FILLER_99_81
*7800 FILLER_99_93
*7801 FILLER_9_105
*7802 FILLER_9_111
*7803 FILLER_9_113
*7804 FILLER_9_125
*7805 FILLER_9_137
*7806 FILLER_9_149
*7807 FILLER_9_15
*7808 FILLER_9_161
*7809 FILLER_9_167
*7810 FILLER_9_169
*7811 FILLER_9_181
*7812 FILLER_9_193
*7813 FILLER_9_205
*7814 FILLER_9_217
*7815 FILLER_9_223
*7816 FILLER_9_225
*7817 FILLER_9_237
*7818 FILLER_9_249
*7819 FILLER_9_261
*7820 FILLER_9_27
*7821 FILLER_9_273
*7822 FILLER_9_279
*7823 FILLER_9_281
*7824 FILLER_9_293
*7825 FILLER_9_3
*7826 FILLER_9_305
*7827 FILLER_9_317
*7828 FILLER_9_329
*7829 FILLER_9_335
*7830 FILLER_9_337
*7831 FILLER_9_349
*7832 FILLER_9_361
*7833 FILLER_9_373
*7834 FILLER_9_385
*7835 FILLER_9_39
*7836 FILLER_9_391
*7837 FILLER_9_393
*7838 FILLER_9_405
*7839 FILLER_9_417
*7840 FILLER_9_429
*7841 FILLER_9_441
*7842 FILLER_9_447
*7843 FILLER_9_449
*7844 FILLER_9_461
*7845 FILLER_9_473
*7846 FILLER_9_485
*7847 FILLER_9_497
*7848 FILLER_9_503
*7849 FILLER_9_505
*7850 FILLER_9_51
*7851 FILLER_9_517
*7852 FILLER_9_529
*7853 FILLER_9_541
*7854 FILLER_9_55
*7855 FILLER_9_553
*7856 FILLER_9_559
*7857 FILLER_9_561
*7858 FILLER_9_57
*7859 FILLER_9_573
*7860 FILLER_9_585
*7861 FILLER_9_597
*7862 FILLER_9_609
*7863 FILLER_9_615
*7864 FILLER_9_617
*7865 FILLER_9_629
*7866 FILLER_9_641
*7867 FILLER_9_653
*7868 FILLER_9_665
*7869 FILLER_9_69
*7870 FILLER_9_81
*7871 FILLER_9_93
*7872 PHY_EDGE_ROW_0_Left_109
*7873 PHY_EDGE_ROW_0_Right_0
*7874 PHY_EDGE_ROW_100_Left_209
*7875 PHY_EDGE_ROW_100_Right_100
*7876 PHY_EDGE_ROW_101_Left_210
*7877 PHY_EDGE_ROW_101_Right_101
*7878 PHY_EDGE_ROW_102_Left_211
*7879 PHY_EDGE_ROW_102_Right_102
*7880 PHY_EDGE_ROW_103_Left_212
*7881 PHY_EDGE_ROW_103_Right_103
*7882 PHY_EDGE_ROW_104_Left_213
*7883 PHY_EDGE_ROW_104_Right_104
*7884 PHY_EDGE_ROW_105_Left_214
*7885 PHY_EDGE_ROW_105_Right_105
*7886 PHY_EDGE_ROW_106_Left_215
*7887 PHY_EDGE_ROW_106_Right_106
*7888 PHY_EDGE_ROW_107_Left_216
*7889 PHY_EDGE_ROW_107_Right_107
*7890 PHY_EDGE_ROW_108_Left_217
*7891 PHY_EDGE_ROW_108_Right_108
*7892 PHY_EDGE_ROW_10_Left_119
*7893 PHY_EDGE_ROW_10_Right_10
*7894 PHY_EDGE_ROW_11_Left_120
*7895 PHY_EDGE_ROW_11_Right_11
*7896 PHY_EDGE_ROW_12_Left_121
*7897 PHY_EDGE_ROW_12_Right_12
*7898 PHY_EDGE_ROW_13_Left_122
*7899 PHY_EDGE_ROW_13_Right_13
*7900 PHY_EDGE_ROW_14_Left_123
*7901 PHY_EDGE_ROW_14_Right_14
*7902 PHY_EDGE_ROW_15_Left_124
*7903 PHY_EDGE_ROW_15_Right_15
*7904 PHY_EDGE_ROW_16_Left_125
*7905 PHY_EDGE_ROW_16_Right_16
*7906 PHY_EDGE_ROW_17_Left_126
*7907 PHY_EDGE_ROW_17_Right_17
*7908 PHY_EDGE_ROW_18_Left_127
*7909 PHY_EDGE_ROW_18_Right_18
*7910 PHY_EDGE_ROW_19_Left_128
*7911 PHY_EDGE_ROW_19_Right_19
*7912 PHY_EDGE_ROW_1_Left_110
*7913 PHY_EDGE_ROW_1_Right_1
*7914 PHY_EDGE_ROW_20_Left_129
*7915 PHY_EDGE_ROW_20_Right_20
*7916 PHY_EDGE_ROW_21_Left_130
*7917 PHY_EDGE_ROW_21_Right_21
*7918 PHY_EDGE_ROW_22_Left_131
*7919 PHY_EDGE_ROW_22_Right_22
*7920 PHY_EDGE_ROW_23_Left_132
*7921 PHY_EDGE_ROW_23_Right_23
*7922 PHY_EDGE_ROW_24_Left_133
*7923 PHY_EDGE_ROW_24_Right_24
*7924 PHY_EDGE_ROW_25_Left_134
*7925 PHY_EDGE_ROW_25_Right_25
*7926 PHY_EDGE_ROW_26_Left_135
*7927 PHY_EDGE_ROW_26_Right_26
*7928 PHY_EDGE_ROW_27_Left_136
*7929 PHY_EDGE_ROW_27_Right_27
*7930 PHY_EDGE_ROW_28_Left_137
*7931 PHY_EDGE_ROW_28_Right_28
*7932 PHY_EDGE_ROW_29_Left_138
*7933 PHY_EDGE_ROW_29_Right_29
*7934 PHY_EDGE_ROW_2_Left_111
*7935 PHY_EDGE_ROW_2_Right_2
*7936 PHY_EDGE_ROW_30_Left_139
*7937 PHY_EDGE_ROW_30_Right_30
*7938 PHY_EDGE_ROW_31_Left_140
*7939 PHY_EDGE_ROW_31_Right_31
*7940 PHY_EDGE_ROW_32_Left_141
*7941 PHY_EDGE_ROW_32_Right_32
*7942 PHY_EDGE_ROW_33_Left_142
*7943 PHY_EDGE_ROW_33_Right_33
*7944 PHY_EDGE_ROW_34_Left_143
*7945 PHY_EDGE_ROW_34_Right_34
*7946 PHY_EDGE_ROW_35_Left_144
*7947 PHY_EDGE_ROW_35_Right_35
*7948 PHY_EDGE_ROW_36_Left_145
*7949 PHY_EDGE_ROW_36_Right_36
*7950 PHY_EDGE_ROW_37_Left_146
*7951 PHY_EDGE_ROW_37_Right_37
*7952 PHY_EDGE_ROW_38_Left_147
*7953 PHY_EDGE_ROW_38_Right_38
*7954 PHY_EDGE_ROW_39_Left_148
*7955 PHY_EDGE_ROW_39_Right_39
*7956 PHY_EDGE_ROW_3_Left_112
*7957 PHY_EDGE_ROW_3_Right_3
*7958 PHY_EDGE_ROW_40_Left_149
*7959 PHY_EDGE_ROW_40_Right_40
*7960 PHY_EDGE_ROW_41_Left_150
*7961 PHY_EDGE_ROW_41_Right_41
*7962 PHY_EDGE_ROW_42_Left_151
*7963 PHY_EDGE_ROW_42_Right_42
*7964 PHY_EDGE_ROW_43_Left_152
*7965 PHY_EDGE_ROW_43_Right_43
*7966 PHY_EDGE_ROW_44_Left_153
*7967 PHY_EDGE_ROW_44_Right_44
*7968 PHY_EDGE_ROW_45_Left_154
*7969 PHY_EDGE_ROW_45_Right_45
*7970 PHY_EDGE_ROW_46_Left_155
*7971 PHY_EDGE_ROW_46_Right_46
*7972 PHY_EDGE_ROW_47_Left_156
*7973 PHY_EDGE_ROW_47_Right_47
*7974 PHY_EDGE_ROW_48_Left_157
*7975 PHY_EDGE_ROW_48_Right_48
*7976 PHY_EDGE_ROW_49_Left_158
*7977 PHY_EDGE_ROW_49_Right_49
*7978 PHY_EDGE_ROW_4_Left_113
*7979 PHY_EDGE_ROW_4_Right_4
*7980 PHY_EDGE_ROW_50_Left_159
*7981 PHY_EDGE_ROW_50_Right_50
*7982 PHY_EDGE_ROW_51_Left_160
*7983 PHY_EDGE_ROW_51_Right_51
*7984 PHY_EDGE_ROW_52_Left_161
*7985 PHY_EDGE_ROW_52_Right_52
*7986 PHY_EDGE_ROW_53_Left_162
*7987 PHY_EDGE_ROW_53_Right_53
*7988 PHY_EDGE_ROW_54_Left_163
*7989 PHY_EDGE_ROW_54_Right_54
*7990 PHY_EDGE_ROW_55_Left_164
*7991 PHY_EDGE_ROW_55_Right_55
*7992 PHY_EDGE_ROW_56_Left_165
*7993 PHY_EDGE_ROW_56_Right_56
*7994 PHY_EDGE_ROW_57_Left_166
*7995 PHY_EDGE_ROW_57_Right_57
*7996 PHY_EDGE_ROW_58_Left_167
*7997 PHY_EDGE_ROW_58_Right_58
*7998 PHY_EDGE_ROW_59_Left_168
*7999 PHY_EDGE_ROW_59_Right_59
*8000 PHY_EDGE_ROW_5_Left_114
*8001 PHY_EDGE_ROW_5_Right_5
*8002 PHY_EDGE_ROW_60_Left_169
*8003 PHY_EDGE_ROW_60_Right_60
*8004 PHY_EDGE_ROW_61_Left_170
*8005 PHY_EDGE_ROW_61_Right_61
*8006 PHY_EDGE_ROW_62_Left_171
*8007 PHY_EDGE_ROW_62_Right_62
*8008 PHY_EDGE_ROW_63_Left_172
*8009 PHY_EDGE_ROW_63_Right_63
*8010 PHY_EDGE_ROW_64_Left_173
*8011 PHY_EDGE_ROW_64_Right_64
*8012 PHY_EDGE_ROW_65_Left_174
*8013 PHY_EDGE_ROW_65_Right_65
*8014 PHY_EDGE_ROW_66_Left_175
*8015 PHY_EDGE_ROW_66_Right_66
*8016 PHY_EDGE_ROW_67_Left_176
*8017 PHY_EDGE_ROW_67_Right_67
*8018 PHY_EDGE_ROW_68_Left_177
*8019 PHY_EDGE_ROW_68_Right_68
*8020 PHY_EDGE_ROW_69_Left_178
*8021 PHY_EDGE_ROW_69_Right_69
*8022 PHY_EDGE_ROW_6_Left_115
*8023 PHY_EDGE_ROW_6_Right_6
*8024 PHY_EDGE_ROW_70_Left_179
*8025 PHY_EDGE_ROW_70_Right_70
*8026 PHY_EDGE_ROW_71_Left_180
*8027 PHY_EDGE_ROW_71_Right_71
*8028 PHY_EDGE_ROW_72_Left_181
*8029 PHY_EDGE_ROW_72_Right_72
*8030 PHY_EDGE_ROW_73_Left_182
*8031 PHY_EDGE_ROW_73_Right_73
*8032 PHY_EDGE_ROW_74_Left_183
*8033 PHY_EDGE_ROW_74_Right_74
*8034 PHY_EDGE_ROW_75_Left_184
*8035 PHY_EDGE_ROW_75_Right_75
*8036 PHY_EDGE_ROW_76_Left_185
*8037 PHY_EDGE_ROW_76_Right_76
*8038 PHY_EDGE_ROW_77_Left_186
*8039 PHY_EDGE_ROW_77_Right_77
*8040 PHY_EDGE_ROW_78_Left_187
*8041 PHY_EDGE_ROW_78_Right_78
*8042 PHY_EDGE_ROW_79_Left_188
*8043 PHY_EDGE_ROW_79_Right_79
*8044 PHY_EDGE_ROW_7_Left_116
*8045 PHY_EDGE_ROW_7_Right_7
*8046 PHY_EDGE_ROW_80_Left_189
*8047 PHY_EDGE_ROW_80_Right_80
*8048 PHY_EDGE_ROW_81_Left_190
*8049 PHY_EDGE_ROW_81_Right_81
*8050 PHY_EDGE_ROW_82_Left_191
*8051 PHY_EDGE_ROW_82_Right_82
*8052 PHY_EDGE_ROW_83_Left_192
*8053 PHY_EDGE_ROW_83_Right_83
*8054 PHY_EDGE_ROW_84_Left_193
*8055 PHY_EDGE_ROW_84_Right_84
*8056 PHY_EDGE_ROW_85_Left_194
*8057 PHY_EDGE_ROW_85_Right_85
*8058 PHY_EDGE_ROW_86_Left_195
*8059 PHY_EDGE_ROW_86_Right_86
*8060 PHY_EDGE_ROW_87_Left_196
*8061 PHY_EDGE_ROW_87_Right_87
*8062 PHY_EDGE_ROW_88_Left_197
*8063 PHY_EDGE_ROW_88_Right_88
*8064 PHY_EDGE_ROW_89_Left_198
*8065 PHY_EDGE_ROW_89_Right_89
*8066 PHY_EDGE_ROW_8_Left_117
*8067 PHY_EDGE_ROW_8_Right_8
*8068 PHY_EDGE_ROW_90_Left_199
*8069 PHY_EDGE_ROW_90_Right_90
*8070 PHY_EDGE_ROW_91_Left_200
*8071 PHY_EDGE_ROW_91_Right_91
*8072 PHY_EDGE_ROW_92_Left_201
*8073 PHY_EDGE_ROW_92_Right_92
*8074 PHY_EDGE_ROW_93_Left_202
*8075 PHY_EDGE_ROW_93_Right_93
*8076 PHY_EDGE_ROW_94_Left_203
*8077 PHY_EDGE_ROW_94_Right_94
*8078 PHY_EDGE_ROW_95_Left_204
*8079 PHY_EDGE_ROW_95_Right_95
*8080 PHY_EDGE_ROW_96_Left_205
*8081 PHY_EDGE_ROW_96_Right_96
*8082 PHY_EDGE_ROW_97_Left_206
*8083 PHY_EDGE_ROW_97_Right_97
*8084 PHY_EDGE_ROW_98_Left_207
*8085 PHY_EDGE_ROW_98_Right_98
*8086 PHY_EDGE_ROW_99_Left_208
*8087 PHY_EDGE_ROW_99_Right_99
*8088 PHY_EDGE_ROW_9_Left_118
*8089 PHY_EDGE_ROW_9_Right_9
*8090 TAP_TAPCELL_ROW_0_218
*8091 TAP_TAPCELL_ROW_0_219
*8092 TAP_TAPCELL_ROW_0_220
*8093 TAP_TAPCELL_ROW_0_221
*8094 TAP_TAPCELL_ROW_0_222
*8095 TAP_TAPCELL_ROW_0_223
*8096 TAP_TAPCELL_ROW_0_224
*8097 TAP_TAPCELL_ROW_0_225
*8098 TAP_TAPCELL_ROW_0_226
*8099 TAP_TAPCELL_ROW_0_227
*8100 TAP_TAPCELL_ROW_0_228
*8101 TAP_TAPCELL_ROW_0_229
*8102 TAP_TAPCELL_ROW_0_230
*8103 TAP_TAPCELL_ROW_0_231
*8104 TAP_TAPCELL_ROW_0_232
*8105 TAP_TAPCELL_ROW_0_233
*8106 TAP_TAPCELL_ROW_0_234
*8107 TAP_TAPCELL_ROW_0_235
*8108 TAP_TAPCELL_ROW_0_236
*8109 TAP_TAPCELL_ROW_0_237
*8110 TAP_TAPCELL_ROW_0_238
*8111 TAP_TAPCELL_ROW_0_239
*8112 TAP_TAPCELL_ROW_0_240
*8113 TAP_TAPCELL_ROW_100_1379
*8114 TAP_TAPCELL_ROW_100_1380
*8115 TAP_TAPCELL_ROW_100_1381
*8116 TAP_TAPCELL_ROW_100_1382
*8117 TAP_TAPCELL_ROW_100_1383
*8118 TAP_TAPCELL_ROW_100_1384
*8119 TAP_TAPCELL_ROW_100_1385
*8120 TAP_TAPCELL_ROW_100_1386
*8121 TAP_TAPCELL_ROW_100_1387
*8122 TAP_TAPCELL_ROW_100_1388
*8123 TAP_TAPCELL_ROW_100_1389
*8124 TAP_TAPCELL_ROW_100_1390
*8125 TAP_TAPCELL_ROW_101_1391
*8126 TAP_TAPCELL_ROW_101_1392
*8127 TAP_TAPCELL_ROW_101_1393
*8128 TAP_TAPCELL_ROW_101_1394
*8129 TAP_TAPCELL_ROW_101_1395
*8130 TAP_TAPCELL_ROW_101_1396
*8131 TAP_TAPCELL_ROW_101_1397
*8132 TAP_TAPCELL_ROW_101_1398
*8133 TAP_TAPCELL_ROW_101_1399
*8134 TAP_TAPCELL_ROW_101_1400
*8135 TAP_TAPCELL_ROW_101_1401
*8136 TAP_TAPCELL_ROW_102_1402
*8137 TAP_TAPCELL_ROW_102_1403
*8138 TAP_TAPCELL_ROW_102_1404
*8139 TAP_TAPCELL_ROW_102_1405
*8140 TAP_TAPCELL_ROW_102_1406
*8141 TAP_TAPCELL_ROW_102_1407
*8142 TAP_TAPCELL_ROW_102_1408
*8143 TAP_TAPCELL_ROW_102_1409
*8144 TAP_TAPCELL_ROW_102_1410
*8145 TAP_TAPCELL_ROW_102_1411
*8146 TAP_TAPCELL_ROW_102_1412
*8147 TAP_TAPCELL_ROW_102_1413
*8148 TAP_TAPCELL_ROW_103_1414
*8149 TAP_TAPCELL_ROW_103_1415
*8150 TAP_TAPCELL_ROW_103_1416
*8151 TAP_TAPCELL_ROW_103_1417
*8152 TAP_TAPCELL_ROW_103_1418
*8153 TAP_TAPCELL_ROW_103_1419
*8154 TAP_TAPCELL_ROW_103_1420
*8155 TAP_TAPCELL_ROW_103_1421
*8156 TAP_TAPCELL_ROW_103_1422
*8157 TAP_TAPCELL_ROW_103_1423
*8158 TAP_TAPCELL_ROW_103_1424
*8159 TAP_TAPCELL_ROW_104_1425
*8160 TAP_TAPCELL_ROW_104_1426
*8161 TAP_TAPCELL_ROW_104_1427
*8162 TAP_TAPCELL_ROW_104_1428
*8163 TAP_TAPCELL_ROW_104_1429
*8164 TAP_TAPCELL_ROW_104_1430
*8165 TAP_TAPCELL_ROW_104_1431
*8166 TAP_TAPCELL_ROW_104_1432
*8167 TAP_TAPCELL_ROW_104_1433
*8168 TAP_TAPCELL_ROW_104_1434
*8169 TAP_TAPCELL_ROW_104_1435
*8170 TAP_TAPCELL_ROW_104_1436
*8171 TAP_TAPCELL_ROW_105_1437
*8172 TAP_TAPCELL_ROW_105_1438
*8173 TAP_TAPCELL_ROW_105_1439
*8174 TAP_TAPCELL_ROW_105_1440
*8175 TAP_TAPCELL_ROW_105_1441
*8176 TAP_TAPCELL_ROW_105_1442
*8177 TAP_TAPCELL_ROW_105_1443
*8178 TAP_TAPCELL_ROW_105_1444
*8179 TAP_TAPCELL_ROW_105_1445
*8180 TAP_TAPCELL_ROW_105_1446
*8181 TAP_TAPCELL_ROW_105_1447
*8182 TAP_TAPCELL_ROW_106_1448
*8183 TAP_TAPCELL_ROW_106_1449
*8184 TAP_TAPCELL_ROW_106_1450
*8185 TAP_TAPCELL_ROW_106_1451
*8186 TAP_TAPCELL_ROW_106_1452
*8187 TAP_TAPCELL_ROW_106_1453
*8188 TAP_TAPCELL_ROW_106_1454
*8189 TAP_TAPCELL_ROW_106_1455
*8190 TAP_TAPCELL_ROW_106_1456
*8191 TAP_TAPCELL_ROW_106_1457
*8192 TAP_TAPCELL_ROW_106_1458
*8193 TAP_TAPCELL_ROW_106_1459
*8194 TAP_TAPCELL_ROW_107_1460
*8195 TAP_TAPCELL_ROW_107_1461
*8196 TAP_TAPCELL_ROW_107_1462
*8197 TAP_TAPCELL_ROW_107_1463
*8198 TAP_TAPCELL_ROW_107_1464
*8199 TAP_TAPCELL_ROW_107_1465
*8200 TAP_TAPCELL_ROW_107_1466
*8201 TAP_TAPCELL_ROW_107_1467
*8202 TAP_TAPCELL_ROW_107_1468
*8203 TAP_TAPCELL_ROW_107_1469
*8204 TAP_TAPCELL_ROW_107_1470
*8205 TAP_TAPCELL_ROW_108_1471
*8206 TAP_TAPCELL_ROW_108_1472
*8207 TAP_TAPCELL_ROW_108_1473
*8208 TAP_TAPCELL_ROW_108_1474
*8209 TAP_TAPCELL_ROW_108_1475
*8210 TAP_TAPCELL_ROW_108_1476
*8211 TAP_TAPCELL_ROW_108_1477
*8212 TAP_TAPCELL_ROW_108_1478
*8213 TAP_TAPCELL_ROW_108_1479
*8214 TAP_TAPCELL_ROW_108_1480
*8215 TAP_TAPCELL_ROW_108_1481
*8216 TAP_TAPCELL_ROW_108_1482
*8217 TAP_TAPCELL_ROW_108_1483
*8218 TAP_TAPCELL_ROW_108_1484
*8219 TAP_TAPCELL_ROW_108_1485
*8220 TAP_TAPCELL_ROW_108_1486
*8221 TAP_TAPCELL_ROW_108_1487
*8222 TAP_TAPCELL_ROW_108_1488
*8223 TAP_TAPCELL_ROW_108_1489
*8224 TAP_TAPCELL_ROW_108_1490
*8225 TAP_TAPCELL_ROW_108_1491
*8226 TAP_TAPCELL_ROW_108_1492
*8227 TAP_TAPCELL_ROW_108_1493
*8228 TAP_TAPCELL_ROW_10_344
*8229 TAP_TAPCELL_ROW_10_345
*8230 TAP_TAPCELL_ROW_10_346
*8231 TAP_TAPCELL_ROW_10_347
*8232 TAP_TAPCELL_ROW_10_348
*8233 TAP_TAPCELL_ROW_10_349
*8234 TAP_TAPCELL_ROW_10_350
*8235 TAP_TAPCELL_ROW_10_351
*8236 TAP_TAPCELL_ROW_10_352
*8237 TAP_TAPCELL_ROW_10_353
*8238 TAP_TAPCELL_ROW_10_354
*8239 TAP_TAPCELL_ROW_10_355
*8240 TAP_TAPCELL_ROW_11_356
*8241 TAP_TAPCELL_ROW_11_357
*8242 TAP_TAPCELL_ROW_11_358
*8243 TAP_TAPCELL_ROW_11_359
*8244 TAP_TAPCELL_ROW_11_360
*8245 TAP_TAPCELL_ROW_11_361
*8246 TAP_TAPCELL_ROW_11_362
*8247 TAP_TAPCELL_ROW_11_363
*8248 TAP_TAPCELL_ROW_11_364
*8249 TAP_TAPCELL_ROW_11_365
*8250 TAP_TAPCELL_ROW_11_366
*8251 TAP_TAPCELL_ROW_12_367
*8252 TAP_TAPCELL_ROW_12_368
*8253 TAP_TAPCELL_ROW_12_369
*8254 TAP_TAPCELL_ROW_12_370
*8255 TAP_TAPCELL_ROW_12_371
*8256 TAP_TAPCELL_ROW_12_372
*8257 TAP_TAPCELL_ROW_12_373
*8258 TAP_TAPCELL_ROW_12_374
*8259 TAP_TAPCELL_ROW_12_375
*8260 TAP_TAPCELL_ROW_12_376
*8261 TAP_TAPCELL_ROW_12_377
*8262 TAP_TAPCELL_ROW_12_378
*8263 TAP_TAPCELL_ROW_13_379
*8264 TAP_TAPCELL_ROW_13_380
*8265 TAP_TAPCELL_ROW_13_381
*8266 TAP_TAPCELL_ROW_13_382
*8267 TAP_TAPCELL_ROW_13_383
*8268 TAP_TAPCELL_ROW_13_384
*8269 TAP_TAPCELL_ROW_13_385
*8270 TAP_TAPCELL_ROW_13_386
*8271 TAP_TAPCELL_ROW_13_387
*8272 TAP_TAPCELL_ROW_13_388
*8273 TAP_TAPCELL_ROW_13_389
*8274 TAP_TAPCELL_ROW_14_390
*8275 TAP_TAPCELL_ROW_14_391
*8276 TAP_TAPCELL_ROW_14_392
*8277 TAP_TAPCELL_ROW_14_393
*8278 TAP_TAPCELL_ROW_14_394
*8279 TAP_TAPCELL_ROW_14_395
*8280 TAP_TAPCELL_ROW_14_396
*8281 TAP_TAPCELL_ROW_14_397
*8282 TAP_TAPCELL_ROW_14_398
*8283 TAP_TAPCELL_ROW_14_399
*8284 TAP_TAPCELL_ROW_14_400
*8285 TAP_TAPCELL_ROW_14_401
*8286 TAP_TAPCELL_ROW_15_402
*8287 TAP_TAPCELL_ROW_15_403
*8288 TAP_TAPCELL_ROW_15_404
*8289 TAP_TAPCELL_ROW_15_405
*8290 TAP_TAPCELL_ROW_15_406
*8291 TAP_TAPCELL_ROW_15_407
*8292 TAP_TAPCELL_ROW_15_408
*8293 TAP_TAPCELL_ROW_15_409
*8294 TAP_TAPCELL_ROW_15_410
*8295 TAP_TAPCELL_ROW_15_411
*8296 TAP_TAPCELL_ROW_15_412
*8297 TAP_TAPCELL_ROW_16_413
*8298 TAP_TAPCELL_ROW_16_414
*8299 TAP_TAPCELL_ROW_16_415
*8300 TAP_TAPCELL_ROW_16_416
*8301 TAP_TAPCELL_ROW_16_417
*8302 TAP_TAPCELL_ROW_16_418
*8303 TAP_TAPCELL_ROW_16_419
*8304 TAP_TAPCELL_ROW_16_420
*8305 TAP_TAPCELL_ROW_16_421
*8306 TAP_TAPCELL_ROW_16_422
*8307 TAP_TAPCELL_ROW_16_423
*8308 TAP_TAPCELL_ROW_16_424
*8309 TAP_TAPCELL_ROW_17_425
*8310 TAP_TAPCELL_ROW_17_426
*8311 TAP_TAPCELL_ROW_17_427
*8312 TAP_TAPCELL_ROW_17_428
*8313 TAP_TAPCELL_ROW_17_429
*8314 TAP_TAPCELL_ROW_17_430
*8315 TAP_TAPCELL_ROW_17_431
*8316 TAP_TAPCELL_ROW_17_432
*8317 TAP_TAPCELL_ROW_17_433
*8318 TAP_TAPCELL_ROW_17_434
*8319 TAP_TAPCELL_ROW_17_435
*8320 TAP_TAPCELL_ROW_18_436
*8321 TAP_TAPCELL_ROW_18_437
*8322 TAP_TAPCELL_ROW_18_438
*8323 TAP_TAPCELL_ROW_18_439
*8324 TAP_TAPCELL_ROW_18_440
*8325 TAP_TAPCELL_ROW_18_441
*8326 TAP_TAPCELL_ROW_18_442
*8327 TAP_TAPCELL_ROW_18_443
*8328 TAP_TAPCELL_ROW_18_444
*8329 TAP_TAPCELL_ROW_18_445
*8330 TAP_TAPCELL_ROW_18_446
*8331 TAP_TAPCELL_ROW_18_447
*8332 TAP_TAPCELL_ROW_19_448
*8333 TAP_TAPCELL_ROW_19_449
*8334 TAP_TAPCELL_ROW_19_450
*8335 TAP_TAPCELL_ROW_19_451
*8336 TAP_TAPCELL_ROW_19_452
*8337 TAP_TAPCELL_ROW_19_453
*8338 TAP_TAPCELL_ROW_19_454
*8339 TAP_TAPCELL_ROW_19_455
*8340 TAP_TAPCELL_ROW_19_456
*8341 TAP_TAPCELL_ROW_19_457
*8342 TAP_TAPCELL_ROW_19_458
*8343 TAP_TAPCELL_ROW_1_241
*8344 TAP_TAPCELL_ROW_1_242
*8345 TAP_TAPCELL_ROW_1_243
*8346 TAP_TAPCELL_ROW_1_244
*8347 TAP_TAPCELL_ROW_1_245
*8348 TAP_TAPCELL_ROW_1_246
*8349 TAP_TAPCELL_ROW_1_247
*8350 TAP_TAPCELL_ROW_1_248
*8351 TAP_TAPCELL_ROW_1_249
*8352 TAP_TAPCELL_ROW_1_250
*8353 TAP_TAPCELL_ROW_1_251
*8354 TAP_TAPCELL_ROW_20_459
*8355 TAP_TAPCELL_ROW_20_460
*8356 TAP_TAPCELL_ROW_20_461
*8357 TAP_TAPCELL_ROW_20_462
*8358 TAP_TAPCELL_ROW_20_463
*8359 TAP_TAPCELL_ROW_20_464
*8360 TAP_TAPCELL_ROW_20_465
*8361 TAP_TAPCELL_ROW_20_466
*8362 TAP_TAPCELL_ROW_20_467
*8363 TAP_TAPCELL_ROW_20_468
*8364 TAP_TAPCELL_ROW_20_469
*8365 TAP_TAPCELL_ROW_20_470
*8366 TAP_TAPCELL_ROW_21_471
*8367 TAP_TAPCELL_ROW_21_472
*8368 TAP_TAPCELL_ROW_21_473
*8369 TAP_TAPCELL_ROW_21_474
*8370 TAP_TAPCELL_ROW_21_475
*8371 TAP_TAPCELL_ROW_21_476
*8372 TAP_TAPCELL_ROW_21_477
*8373 TAP_TAPCELL_ROW_21_478
*8374 TAP_TAPCELL_ROW_21_479
*8375 TAP_TAPCELL_ROW_21_480
*8376 TAP_TAPCELL_ROW_21_481
*8377 TAP_TAPCELL_ROW_22_482
*8378 TAP_TAPCELL_ROW_22_483
*8379 TAP_TAPCELL_ROW_22_484
*8380 TAP_TAPCELL_ROW_22_485
*8381 TAP_TAPCELL_ROW_22_486
*8382 TAP_TAPCELL_ROW_22_487
*8383 TAP_TAPCELL_ROW_22_488
*8384 TAP_TAPCELL_ROW_22_489
*8385 TAP_TAPCELL_ROW_22_490
*8386 TAP_TAPCELL_ROW_22_491
*8387 TAP_TAPCELL_ROW_22_492
*8388 TAP_TAPCELL_ROW_22_493
*8389 TAP_TAPCELL_ROW_23_494
*8390 TAP_TAPCELL_ROW_23_495
*8391 TAP_TAPCELL_ROW_23_496
*8392 TAP_TAPCELL_ROW_23_497
*8393 TAP_TAPCELL_ROW_23_498
*8394 TAP_TAPCELL_ROW_23_499
*8395 TAP_TAPCELL_ROW_23_500
*8396 TAP_TAPCELL_ROW_23_501
*8397 TAP_TAPCELL_ROW_23_502
*8398 TAP_TAPCELL_ROW_23_503
*8399 TAP_TAPCELL_ROW_23_504
*8400 TAP_TAPCELL_ROW_24_505
*8401 TAP_TAPCELL_ROW_24_506
*8402 TAP_TAPCELL_ROW_24_507
*8403 TAP_TAPCELL_ROW_24_508
*8404 TAP_TAPCELL_ROW_24_509
*8405 TAP_TAPCELL_ROW_24_510
*8406 TAP_TAPCELL_ROW_24_511
*8407 TAP_TAPCELL_ROW_24_512
*8408 TAP_TAPCELL_ROW_24_513
*8409 TAP_TAPCELL_ROW_24_514
*8410 TAP_TAPCELL_ROW_24_515
*8411 TAP_TAPCELL_ROW_24_516
*8412 TAP_TAPCELL_ROW_25_517
*8413 TAP_TAPCELL_ROW_25_518
*8414 TAP_TAPCELL_ROW_25_519
*8415 TAP_TAPCELL_ROW_25_520
*8416 TAP_TAPCELL_ROW_25_521
*8417 TAP_TAPCELL_ROW_25_522
*8418 TAP_TAPCELL_ROW_25_523
*8419 TAP_TAPCELL_ROW_25_524
*8420 TAP_TAPCELL_ROW_25_525
*8421 TAP_TAPCELL_ROW_25_526
*8422 TAP_TAPCELL_ROW_25_527
*8423 TAP_TAPCELL_ROW_26_528
*8424 TAP_TAPCELL_ROW_26_529
*8425 TAP_TAPCELL_ROW_26_530
*8426 TAP_TAPCELL_ROW_26_531
*8427 TAP_TAPCELL_ROW_26_532
*8428 TAP_TAPCELL_ROW_26_533
*8429 TAP_TAPCELL_ROW_26_534
*8430 TAP_TAPCELL_ROW_26_535
*8431 TAP_TAPCELL_ROW_26_536
*8432 TAP_TAPCELL_ROW_26_537
*8433 TAP_TAPCELL_ROW_26_538
*8434 TAP_TAPCELL_ROW_26_539
*8435 TAP_TAPCELL_ROW_27_540
*8436 TAP_TAPCELL_ROW_27_541
*8437 TAP_TAPCELL_ROW_27_542
*8438 TAP_TAPCELL_ROW_27_543
*8439 TAP_TAPCELL_ROW_27_544
*8440 TAP_TAPCELL_ROW_27_545
*8441 TAP_TAPCELL_ROW_27_546
*8442 TAP_TAPCELL_ROW_27_547
*8443 TAP_TAPCELL_ROW_27_548
*8444 TAP_TAPCELL_ROW_27_549
*8445 TAP_TAPCELL_ROW_27_550
*8446 TAP_TAPCELL_ROW_28_551
*8447 TAP_TAPCELL_ROW_28_552
*8448 TAP_TAPCELL_ROW_28_553
*8449 TAP_TAPCELL_ROW_28_554
*8450 TAP_TAPCELL_ROW_28_555
*8451 TAP_TAPCELL_ROW_28_556
*8452 TAP_TAPCELL_ROW_28_557
*8453 TAP_TAPCELL_ROW_28_558
*8454 TAP_TAPCELL_ROW_28_559
*8455 TAP_TAPCELL_ROW_28_560
*8456 TAP_TAPCELL_ROW_28_561
*8457 TAP_TAPCELL_ROW_28_562
*8458 TAP_TAPCELL_ROW_29_563
*8459 TAP_TAPCELL_ROW_29_564
*8460 TAP_TAPCELL_ROW_29_565
*8461 TAP_TAPCELL_ROW_29_566
*8462 TAP_TAPCELL_ROW_29_567
*8463 TAP_TAPCELL_ROW_29_568
*8464 TAP_TAPCELL_ROW_29_569
*8465 TAP_TAPCELL_ROW_29_570
*8466 TAP_TAPCELL_ROW_29_571
*8467 TAP_TAPCELL_ROW_29_572
*8468 TAP_TAPCELL_ROW_29_573
*8469 TAP_TAPCELL_ROW_2_252
*8470 TAP_TAPCELL_ROW_2_253
*8471 TAP_TAPCELL_ROW_2_254
*8472 TAP_TAPCELL_ROW_2_255
*8473 TAP_TAPCELL_ROW_2_256
*8474 TAP_TAPCELL_ROW_2_257
*8475 TAP_TAPCELL_ROW_2_258
*8476 TAP_TAPCELL_ROW_2_259
*8477 TAP_TAPCELL_ROW_2_260
*8478 TAP_TAPCELL_ROW_2_261
*8479 TAP_TAPCELL_ROW_2_262
*8480 TAP_TAPCELL_ROW_2_263
*8481 TAP_TAPCELL_ROW_30_574
*8482 TAP_TAPCELL_ROW_30_575
*8483 TAP_TAPCELL_ROW_30_576
*8484 TAP_TAPCELL_ROW_30_577
*8485 TAP_TAPCELL_ROW_30_578
*8486 TAP_TAPCELL_ROW_30_579
*8487 TAP_TAPCELL_ROW_30_580
*8488 TAP_TAPCELL_ROW_30_581
*8489 TAP_TAPCELL_ROW_30_582
*8490 TAP_TAPCELL_ROW_30_583
*8491 TAP_TAPCELL_ROW_30_584
*8492 TAP_TAPCELL_ROW_30_585
*8493 TAP_TAPCELL_ROW_31_586
*8494 TAP_TAPCELL_ROW_31_587
*8495 TAP_TAPCELL_ROW_31_588
*8496 TAP_TAPCELL_ROW_31_589
*8497 TAP_TAPCELL_ROW_31_590
*8498 TAP_TAPCELL_ROW_31_591
*8499 TAP_TAPCELL_ROW_31_592
*8500 TAP_TAPCELL_ROW_31_593
*8501 TAP_TAPCELL_ROW_31_594
*8502 TAP_TAPCELL_ROW_31_595
*8503 TAP_TAPCELL_ROW_31_596
*8504 TAP_TAPCELL_ROW_32_597
*8505 TAP_TAPCELL_ROW_32_598
*8506 TAP_TAPCELL_ROW_32_599
*8507 TAP_TAPCELL_ROW_32_600
*8508 TAP_TAPCELL_ROW_32_601
*8509 TAP_TAPCELL_ROW_32_602
*8510 TAP_TAPCELL_ROW_32_603
*8511 TAP_TAPCELL_ROW_32_604
*8512 TAP_TAPCELL_ROW_32_605
*8513 TAP_TAPCELL_ROW_32_606
*8514 TAP_TAPCELL_ROW_32_607
*8515 TAP_TAPCELL_ROW_32_608
*8516 TAP_TAPCELL_ROW_33_609
*8517 TAP_TAPCELL_ROW_33_610
*8518 TAP_TAPCELL_ROW_33_611
*8519 TAP_TAPCELL_ROW_33_612
*8520 TAP_TAPCELL_ROW_33_613
*8521 TAP_TAPCELL_ROW_33_614
*8522 TAP_TAPCELL_ROW_33_615
*8523 TAP_TAPCELL_ROW_33_616
*8524 TAP_TAPCELL_ROW_33_617
*8525 TAP_TAPCELL_ROW_33_618
*8526 TAP_TAPCELL_ROW_33_619
*8527 TAP_TAPCELL_ROW_34_620
*8528 TAP_TAPCELL_ROW_34_621
*8529 TAP_TAPCELL_ROW_34_622
*8530 TAP_TAPCELL_ROW_34_623
*8531 TAP_TAPCELL_ROW_34_624
*8532 TAP_TAPCELL_ROW_34_625
*8533 TAP_TAPCELL_ROW_34_626
*8534 TAP_TAPCELL_ROW_34_627
*8535 TAP_TAPCELL_ROW_34_628
*8536 TAP_TAPCELL_ROW_34_629
*8537 TAP_TAPCELL_ROW_34_630
*8538 TAP_TAPCELL_ROW_34_631
*8539 TAP_TAPCELL_ROW_35_632
*8540 TAP_TAPCELL_ROW_35_633
*8541 TAP_TAPCELL_ROW_35_634
*8542 TAP_TAPCELL_ROW_35_635
*8543 TAP_TAPCELL_ROW_35_636
*8544 TAP_TAPCELL_ROW_35_637
*8545 TAP_TAPCELL_ROW_35_638
*8546 TAP_TAPCELL_ROW_35_639
*8547 TAP_TAPCELL_ROW_35_640
*8548 TAP_TAPCELL_ROW_35_641
*8549 TAP_TAPCELL_ROW_35_642
*8550 TAP_TAPCELL_ROW_36_643
*8551 TAP_TAPCELL_ROW_36_644
*8552 TAP_TAPCELL_ROW_36_645
*8553 TAP_TAPCELL_ROW_36_646
*8554 TAP_TAPCELL_ROW_36_647
*8555 TAP_TAPCELL_ROW_36_648
*8556 TAP_TAPCELL_ROW_36_649
*8557 TAP_TAPCELL_ROW_36_650
*8558 TAP_TAPCELL_ROW_36_651
*8559 TAP_TAPCELL_ROW_36_652
*8560 TAP_TAPCELL_ROW_36_653
*8561 TAP_TAPCELL_ROW_36_654
*8562 TAP_TAPCELL_ROW_37_655
*8563 TAP_TAPCELL_ROW_37_656
*8564 TAP_TAPCELL_ROW_37_657
*8565 TAP_TAPCELL_ROW_37_658
*8566 TAP_TAPCELL_ROW_37_659
*8567 TAP_TAPCELL_ROW_37_660
*8568 TAP_TAPCELL_ROW_37_661
*8569 TAP_TAPCELL_ROW_37_662
*8570 TAP_TAPCELL_ROW_37_663
*8571 TAP_TAPCELL_ROW_37_664
*8572 TAP_TAPCELL_ROW_37_665
*8573 TAP_TAPCELL_ROW_38_666
*8574 TAP_TAPCELL_ROW_38_667
*8575 TAP_TAPCELL_ROW_38_668
*8576 TAP_TAPCELL_ROW_38_669
*8577 TAP_TAPCELL_ROW_38_670
*8578 TAP_TAPCELL_ROW_38_671
*8579 TAP_TAPCELL_ROW_38_672
*8580 TAP_TAPCELL_ROW_38_673
*8581 TAP_TAPCELL_ROW_38_674
*8582 TAP_TAPCELL_ROW_38_675
*8583 TAP_TAPCELL_ROW_38_676
*8584 TAP_TAPCELL_ROW_38_677
*8585 TAP_TAPCELL_ROW_39_678
*8586 TAP_TAPCELL_ROW_39_679
*8587 TAP_TAPCELL_ROW_39_680
*8588 TAP_TAPCELL_ROW_39_681
*8589 TAP_TAPCELL_ROW_39_682
*8590 TAP_TAPCELL_ROW_39_683
*8591 TAP_TAPCELL_ROW_39_684
*8592 TAP_TAPCELL_ROW_39_685
*8593 TAP_TAPCELL_ROW_39_686
*8594 TAP_TAPCELL_ROW_39_687
*8595 TAP_TAPCELL_ROW_39_688
*8596 TAP_TAPCELL_ROW_3_264
*8597 TAP_TAPCELL_ROW_3_265
*8598 TAP_TAPCELL_ROW_3_266
*8599 TAP_TAPCELL_ROW_3_267
*8600 TAP_TAPCELL_ROW_3_268
*8601 TAP_TAPCELL_ROW_3_269
*8602 TAP_TAPCELL_ROW_3_270
*8603 TAP_TAPCELL_ROW_3_271
*8604 TAP_TAPCELL_ROW_3_272
*8605 TAP_TAPCELL_ROW_3_273
*8606 TAP_TAPCELL_ROW_3_274
*8607 TAP_TAPCELL_ROW_40_689
*8608 TAP_TAPCELL_ROW_40_690
*8609 TAP_TAPCELL_ROW_40_691
*8610 TAP_TAPCELL_ROW_40_692
*8611 TAP_TAPCELL_ROW_40_693
*8612 TAP_TAPCELL_ROW_40_694
*8613 TAP_TAPCELL_ROW_40_695
*8614 TAP_TAPCELL_ROW_40_696
*8615 TAP_TAPCELL_ROW_40_697
*8616 TAP_TAPCELL_ROW_40_698
*8617 TAP_TAPCELL_ROW_40_699
*8618 TAP_TAPCELL_ROW_40_700
*8619 TAP_TAPCELL_ROW_41_701
*8620 TAP_TAPCELL_ROW_41_702
*8621 TAP_TAPCELL_ROW_41_703
*8622 TAP_TAPCELL_ROW_41_704
*8623 TAP_TAPCELL_ROW_41_705
*8624 TAP_TAPCELL_ROW_41_706
*8625 TAP_TAPCELL_ROW_41_707
*8626 TAP_TAPCELL_ROW_41_708
*8627 TAP_TAPCELL_ROW_41_709
*8628 TAP_TAPCELL_ROW_41_710
*8629 TAP_TAPCELL_ROW_41_711
*8630 TAP_TAPCELL_ROW_42_712
*8631 TAP_TAPCELL_ROW_42_713
*8632 TAP_TAPCELL_ROW_42_714
*8633 TAP_TAPCELL_ROW_42_715
*8634 TAP_TAPCELL_ROW_42_716
*8635 TAP_TAPCELL_ROW_42_717
*8636 TAP_TAPCELL_ROW_42_718
*8637 TAP_TAPCELL_ROW_42_719
*8638 TAP_TAPCELL_ROW_42_720
*8639 TAP_TAPCELL_ROW_42_721
*8640 TAP_TAPCELL_ROW_42_722
*8641 TAP_TAPCELL_ROW_42_723
*8642 TAP_TAPCELL_ROW_43_724
*8643 TAP_TAPCELL_ROW_43_725
*8644 TAP_TAPCELL_ROW_43_726
*8645 TAP_TAPCELL_ROW_43_727
*8646 TAP_TAPCELL_ROW_43_728
*8647 TAP_TAPCELL_ROW_43_729
*8648 TAP_TAPCELL_ROW_43_730
*8649 TAP_TAPCELL_ROW_43_731
*8650 TAP_TAPCELL_ROW_43_732
*8651 TAP_TAPCELL_ROW_43_733
*8652 TAP_TAPCELL_ROW_43_734
*8653 TAP_TAPCELL_ROW_44_735
*8654 TAP_TAPCELL_ROW_44_736
*8655 TAP_TAPCELL_ROW_44_737
*8656 TAP_TAPCELL_ROW_44_738
*8657 TAP_TAPCELL_ROW_44_739
*8658 TAP_TAPCELL_ROW_44_740
*8659 TAP_TAPCELL_ROW_44_741
*8660 TAP_TAPCELL_ROW_44_742
*8661 TAP_TAPCELL_ROW_44_743
*8662 TAP_TAPCELL_ROW_44_744
*8663 TAP_TAPCELL_ROW_44_745
*8664 TAP_TAPCELL_ROW_44_746
*8665 TAP_TAPCELL_ROW_45_747
*8666 TAP_TAPCELL_ROW_45_748
*8667 TAP_TAPCELL_ROW_45_749
*8668 TAP_TAPCELL_ROW_45_750
*8669 TAP_TAPCELL_ROW_45_751
*8670 TAP_TAPCELL_ROW_45_752
*8671 TAP_TAPCELL_ROW_45_753
*8672 TAP_TAPCELL_ROW_45_754
*8673 TAP_TAPCELL_ROW_45_755
*8674 TAP_TAPCELL_ROW_45_756
*8675 TAP_TAPCELL_ROW_45_757
*8676 TAP_TAPCELL_ROW_46_758
*8677 TAP_TAPCELL_ROW_46_759
*8678 TAP_TAPCELL_ROW_46_760
*8679 TAP_TAPCELL_ROW_46_761
*8680 TAP_TAPCELL_ROW_46_762
*8681 TAP_TAPCELL_ROW_46_763
*8682 TAP_TAPCELL_ROW_46_764
*8683 TAP_TAPCELL_ROW_46_765
*8684 TAP_TAPCELL_ROW_46_766
*8685 TAP_TAPCELL_ROW_46_767
*8686 TAP_TAPCELL_ROW_46_768
*8687 TAP_TAPCELL_ROW_46_769
*8688 TAP_TAPCELL_ROW_47_770
*8689 TAP_TAPCELL_ROW_47_771
*8690 TAP_TAPCELL_ROW_47_772
*8691 TAP_TAPCELL_ROW_47_773
*8692 TAP_TAPCELL_ROW_47_774
*8693 TAP_TAPCELL_ROW_47_775
*8694 TAP_TAPCELL_ROW_47_776
*8695 TAP_TAPCELL_ROW_47_777
*8696 TAP_TAPCELL_ROW_47_778
*8697 TAP_TAPCELL_ROW_47_779
*8698 TAP_TAPCELL_ROW_47_780
*8699 TAP_TAPCELL_ROW_48_781
*8700 TAP_TAPCELL_ROW_48_782
*8701 TAP_TAPCELL_ROW_48_783
*8702 TAP_TAPCELL_ROW_48_784
*8703 TAP_TAPCELL_ROW_48_785
*8704 TAP_TAPCELL_ROW_48_786
*8705 TAP_TAPCELL_ROW_48_787
*8706 TAP_TAPCELL_ROW_48_788
*8707 TAP_TAPCELL_ROW_48_789
*8708 TAP_TAPCELL_ROW_48_790
*8709 TAP_TAPCELL_ROW_48_791
*8710 TAP_TAPCELL_ROW_48_792
*8711 TAP_TAPCELL_ROW_49_793
*8712 TAP_TAPCELL_ROW_49_794
*8713 TAP_TAPCELL_ROW_49_795
*8714 TAP_TAPCELL_ROW_49_796
*8715 TAP_TAPCELL_ROW_49_797
*8716 TAP_TAPCELL_ROW_49_798
*8717 TAP_TAPCELL_ROW_49_799
*8718 TAP_TAPCELL_ROW_49_800
*8719 TAP_TAPCELL_ROW_49_801
*8720 TAP_TAPCELL_ROW_49_802
*8721 TAP_TAPCELL_ROW_49_803
*8722 TAP_TAPCELL_ROW_4_275
*8723 TAP_TAPCELL_ROW_4_276
*8724 TAP_TAPCELL_ROW_4_277
*8725 TAP_TAPCELL_ROW_4_278
*8726 TAP_TAPCELL_ROW_4_279
*8727 TAP_TAPCELL_ROW_4_280
*8728 TAP_TAPCELL_ROW_4_281
*8729 TAP_TAPCELL_ROW_4_282
*8730 TAP_TAPCELL_ROW_4_283
*8731 TAP_TAPCELL_ROW_4_284
*8732 TAP_TAPCELL_ROW_4_285
*8733 TAP_TAPCELL_ROW_4_286
*8734 TAP_TAPCELL_ROW_50_804
*8735 TAP_TAPCELL_ROW_50_805
*8736 TAP_TAPCELL_ROW_50_806
*8737 TAP_TAPCELL_ROW_50_807
*8738 TAP_TAPCELL_ROW_50_808
*8739 TAP_TAPCELL_ROW_50_809
*8740 TAP_TAPCELL_ROW_50_810
*8741 TAP_TAPCELL_ROW_50_811
*8742 TAP_TAPCELL_ROW_50_812
*8743 TAP_TAPCELL_ROW_50_813
*8744 TAP_TAPCELL_ROW_50_814
*8745 TAP_TAPCELL_ROW_50_815
*8746 TAP_TAPCELL_ROW_51_816
*8747 TAP_TAPCELL_ROW_51_817
*8748 TAP_TAPCELL_ROW_51_818
*8749 TAP_TAPCELL_ROW_51_819
*8750 TAP_TAPCELL_ROW_51_820
*8751 TAP_TAPCELL_ROW_51_821
*8752 TAP_TAPCELL_ROW_51_822
*8753 TAP_TAPCELL_ROW_51_823
*8754 TAP_TAPCELL_ROW_51_824
*8755 TAP_TAPCELL_ROW_51_825
*8756 TAP_TAPCELL_ROW_51_826
*8757 TAP_TAPCELL_ROW_52_827
*8758 TAP_TAPCELL_ROW_52_828
*8759 TAP_TAPCELL_ROW_52_829
*8760 TAP_TAPCELL_ROW_52_830
*8761 TAP_TAPCELL_ROW_52_831
*8762 TAP_TAPCELL_ROW_52_832
*8763 TAP_TAPCELL_ROW_52_833
*8764 TAP_TAPCELL_ROW_52_834
*8765 TAP_TAPCELL_ROW_52_835
*8766 TAP_TAPCELL_ROW_52_836
*8767 TAP_TAPCELL_ROW_52_837
*8768 TAP_TAPCELL_ROW_52_838
*8769 TAP_TAPCELL_ROW_53_839
*8770 TAP_TAPCELL_ROW_53_840
*8771 TAP_TAPCELL_ROW_53_841
*8772 TAP_TAPCELL_ROW_53_842
*8773 TAP_TAPCELL_ROW_53_843
*8774 TAP_TAPCELL_ROW_53_844
*8775 TAP_TAPCELL_ROW_53_845
*8776 TAP_TAPCELL_ROW_53_846
*8777 TAP_TAPCELL_ROW_53_847
*8778 TAP_TAPCELL_ROW_53_848
*8779 TAP_TAPCELL_ROW_53_849
*8780 TAP_TAPCELL_ROW_54_850
*8781 TAP_TAPCELL_ROW_54_851
*8782 TAP_TAPCELL_ROW_54_852
*8783 TAP_TAPCELL_ROW_54_853
*8784 TAP_TAPCELL_ROW_54_854
*8785 TAP_TAPCELL_ROW_54_855
*8786 TAP_TAPCELL_ROW_54_856
*8787 TAP_TAPCELL_ROW_54_857
*8788 TAP_TAPCELL_ROW_54_858
*8789 TAP_TAPCELL_ROW_54_859
*8790 TAP_TAPCELL_ROW_54_860
*8791 TAP_TAPCELL_ROW_54_861
*8792 TAP_TAPCELL_ROW_55_862
*8793 TAP_TAPCELL_ROW_55_863
*8794 TAP_TAPCELL_ROW_55_864
*8795 TAP_TAPCELL_ROW_55_865
*8796 TAP_TAPCELL_ROW_55_866
*8797 TAP_TAPCELL_ROW_55_867
*8798 TAP_TAPCELL_ROW_55_868
*8799 TAP_TAPCELL_ROW_55_869
*8800 TAP_TAPCELL_ROW_55_870
*8801 TAP_TAPCELL_ROW_55_871
*8802 TAP_TAPCELL_ROW_55_872
*8803 TAP_TAPCELL_ROW_56_873
*8804 TAP_TAPCELL_ROW_56_874
*8805 TAP_TAPCELL_ROW_56_875
*8806 TAP_TAPCELL_ROW_56_876
*8807 TAP_TAPCELL_ROW_56_877
*8808 TAP_TAPCELL_ROW_56_878
*8809 TAP_TAPCELL_ROW_56_879
*8810 TAP_TAPCELL_ROW_56_880
*8811 TAP_TAPCELL_ROW_56_881
*8812 TAP_TAPCELL_ROW_56_882
*8813 TAP_TAPCELL_ROW_56_883
*8814 TAP_TAPCELL_ROW_56_884
*8815 TAP_TAPCELL_ROW_57_885
*8816 TAP_TAPCELL_ROW_57_886
*8817 TAP_TAPCELL_ROW_57_887
*8818 TAP_TAPCELL_ROW_57_888
*8819 TAP_TAPCELL_ROW_57_889
*8820 TAP_TAPCELL_ROW_57_890
*8821 TAP_TAPCELL_ROW_57_891
*8822 TAP_TAPCELL_ROW_57_892
*8823 TAP_TAPCELL_ROW_57_893
*8824 TAP_TAPCELL_ROW_57_894
*8825 TAP_TAPCELL_ROW_57_895
*8826 TAP_TAPCELL_ROW_58_896
*8827 TAP_TAPCELL_ROW_58_897
*8828 TAP_TAPCELL_ROW_58_898
*8829 TAP_TAPCELL_ROW_58_899
*8830 TAP_TAPCELL_ROW_58_900
*8831 TAP_TAPCELL_ROW_58_901
*8832 TAP_TAPCELL_ROW_58_902
*8833 TAP_TAPCELL_ROW_58_903
*8834 TAP_TAPCELL_ROW_58_904
*8835 TAP_TAPCELL_ROW_58_905
*8836 TAP_TAPCELL_ROW_58_906
*8837 TAP_TAPCELL_ROW_58_907
*8838 TAP_TAPCELL_ROW_59_908
*8839 TAP_TAPCELL_ROW_59_909
*8840 TAP_TAPCELL_ROW_59_910
*8841 TAP_TAPCELL_ROW_59_911
*8842 TAP_TAPCELL_ROW_59_912
*8843 TAP_TAPCELL_ROW_59_913
*8844 TAP_TAPCELL_ROW_59_914
*8845 TAP_TAPCELL_ROW_59_915
*8846 TAP_TAPCELL_ROW_59_916
*8847 TAP_TAPCELL_ROW_59_917
*8848 TAP_TAPCELL_ROW_59_918
*8849 TAP_TAPCELL_ROW_5_287
*8850 TAP_TAPCELL_ROW_5_288
*8851 TAP_TAPCELL_ROW_5_289
*8852 TAP_TAPCELL_ROW_5_290
*8853 TAP_TAPCELL_ROW_5_291
*8854 TAP_TAPCELL_ROW_5_292
*8855 TAP_TAPCELL_ROW_5_293
*8856 TAP_TAPCELL_ROW_5_294
*8857 TAP_TAPCELL_ROW_5_295
*8858 TAP_TAPCELL_ROW_5_296
*8859 TAP_TAPCELL_ROW_5_297
*8860 TAP_TAPCELL_ROW_60_919
*8861 TAP_TAPCELL_ROW_60_920
*8862 TAP_TAPCELL_ROW_60_921
*8863 TAP_TAPCELL_ROW_60_922
*8864 TAP_TAPCELL_ROW_60_923
*8865 TAP_TAPCELL_ROW_60_924
*8866 TAP_TAPCELL_ROW_60_925
*8867 TAP_TAPCELL_ROW_60_926
*8868 TAP_TAPCELL_ROW_60_927
*8869 TAP_TAPCELL_ROW_60_928
*8870 TAP_TAPCELL_ROW_60_929
*8871 TAP_TAPCELL_ROW_60_930
*8872 TAP_TAPCELL_ROW_61_931
*8873 TAP_TAPCELL_ROW_61_932
*8874 TAP_TAPCELL_ROW_61_933
*8875 TAP_TAPCELL_ROW_61_934
*8876 TAP_TAPCELL_ROW_61_935
*8877 TAP_TAPCELL_ROW_61_936
*8878 TAP_TAPCELL_ROW_61_937
*8879 TAP_TAPCELL_ROW_61_938
*8880 TAP_TAPCELL_ROW_61_939
*8881 TAP_TAPCELL_ROW_61_940
*8882 TAP_TAPCELL_ROW_61_941
*8883 TAP_TAPCELL_ROW_62_942
*8884 TAP_TAPCELL_ROW_62_943
*8885 TAP_TAPCELL_ROW_62_944
*8886 TAP_TAPCELL_ROW_62_945
*8887 TAP_TAPCELL_ROW_62_946
*8888 TAP_TAPCELL_ROW_62_947
*8889 TAP_TAPCELL_ROW_62_948
*8890 TAP_TAPCELL_ROW_62_949
*8891 TAP_TAPCELL_ROW_62_950
*8892 TAP_TAPCELL_ROW_62_951
*8893 TAP_TAPCELL_ROW_62_952
*8894 TAP_TAPCELL_ROW_62_953
*8895 TAP_TAPCELL_ROW_63_954
*8896 TAP_TAPCELL_ROW_63_955
*8897 TAP_TAPCELL_ROW_63_956
*8898 TAP_TAPCELL_ROW_63_957
*8899 TAP_TAPCELL_ROW_63_958
*8900 TAP_TAPCELL_ROW_63_959
*8901 TAP_TAPCELL_ROW_63_960
*8902 TAP_TAPCELL_ROW_63_961
*8903 TAP_TAPCELL_ROW_63_962
*8904 TAP_TAPCELL_ROW_63_963
*8905 TAP_TAPCELL_ROW_63_964
*8906 TAP_TAPCELL_ROW_64_965
*8907 TAP_TAPCELL_ROW_64_966
*8908 TAP_TAPCELL_ROW_64_967
*8909 TAP_TAPCELL_ROW_64_968
*8910 TAP_TAPCELL_ROW_64_969
*8911 TAP_TAPCELL_ROW_64_970
*8912 TAP_TAPCELL_ROW_64_971
*8913 TAP_TAPCELL_ROW_64_972
*8914 TAP_TAPCELL_ROW_64_973
*8915 TAP_TAPCELL_ROW_64_974
*8916 TAP_TAPCELL_ROW_64_975
*8917 TAP_TAPCELL_ROW_64_976
*8918 TAP_TAPCELL_ROW_65_977
*8919 TAP_TAPCELL_ROW_65_978
*8920 TAP_TAPCELL_ROW_65_979
*8921 TAP_TAPCELL_ROW_65_980
*8922 TAP_TAPCELL_ROW_65_981
*8923 TAP_TAPCELL_ROW_65_982
*8924 TAP_TAPCELL_ROW_65_983
*8925 TAP_TAPCELL_ROW_65_984
*8926 TAP_TAPCELL_ROW_65_985
*8927 TAP_TAPCELL_ROW_65_986
*8928 TAP_TAPCELL_ROW_65_987
*8929 TAP_TAPCELL_ROW_66_988
*8930 TAP_TAPCELL_ROW_66_989
*8931 TAP_TAPCELL_ROW_66_990
*8932 TAP_TAPCELL_ROW_66_991
*8933 TAP_TAPCELL_ROW_66_992
*8934 TAP_TAPCELL_ROW_66_993
*8935 TAP_TAPCELL_ROW_66_994
*8936 TAP_TAPCELL_ROW_66_995
*8937 TAP_TAPCELL_ROW_66_996
*8938 TAP_TAPCELL_ROW_66_997
*8939 TAP_TAPCELL_ROW_66_998
*8940 TAP_TAPCELL_ROW_66_999
*8941 TAP_TAPCELL_ROW_67_1000
*8942 TAP_TAPCELL_ROW_67_1001
*8943 TAP_TAPCELL_ROW_67_1002
*8944 TAP_TAPCELL_ROW_67_1003
*8945 TAP_TAPCELL_ROW_67_1004
*8946 TAP_TAPCELL_ROW_67_1005
*8947 TAP_TAPCELL_ROW_67_1006
*8948 TAP_TAPCELL_ROW_67_1007
*8949 TAP_TAPCELL_ROW_67_1008
*8950 TAP_TAPCELL_ROW_67_1009
*8951 TAP_TAPCELL_ROW_67_1010
*8952 TAP_TAPCELL_ROW_68_1011
*8953 TAP_TAPCELL_ROW_68_1012
*8954 TAP_TAPCELL_ROW_68_1013
*8955 TAP_TAPCELL_ROW_68_1014
*8956 TAP_TAPCELL_ROW_68_1015
*8957 TAP_TAPCELL_ROW_68_1016
*8958 TAP_TAPCELL_ROW_68_1017
*8959 TAP_TAPCELL_ROW_68_1018
*8960 TAP_TAPCELL_ROW_68_1019
*8961 TAP_TAPCELL_ROW_68_1020
*8962 TAP_TAPCELL_ROW_68_1021
*8963 TAP_TAPCELL_ROW_68_1022
*8964 TAP_TAPCELL_ROW_69_1023
*8965 TAP_TAPCELL_ROW_69_1024
*8966 TAP_TAPCELL_ROW_69_1025
*8967 TAP_TAPCELL_ROW_69_1026
*8968 TAP_TAPCELL_ROW_69_1027
*8969 TAP_TAPCELL_ROW_69_1028
*8970 TAP_TAPCELL_ROW_69_1029
*8971 TAP_TAPCELL_ROW_69_1030
*8972 TAP_TAPCELL_ROW_69_1031
*8973 TAP_TAPCELL_ROW_69_1032
*8974 TAP_TAPCELL_ROW_69_1033
*8975 TAP_TAPCELL_ROW_6_298
*8976 TAP_TAPCELL_ROW_6_299
*8977 TAP_TAPCELL_ROW_6_300
*8978 TAP_TAPCELL_ROW_6_301
*8979 TAP_TAPCELL_ROW_6_302
*8980 TAP_TAPCELL_ROW_6_303
*8981 TAP_TAPCELL_ROW_6_304
*8982 TAP_TAPCELL_ROW_6_305
*8983 TAP_TAPCELL_ROW_6_306
*8984 TAP_TAPCELL_ROW_6_307
*8985 TAP_TAPCELL_ROW_6_308
*8986 TAP_TAPCELL_ROW_6_309
*8987 TAP_TAPCELL_ROW_70_1034
*8988 TAP_TAPCELL_ROW_70_1035
*8989 TAP_TAPCELL_ROW_70_1036
*8990 TAP_TAPCELL_ROW_70_1037
*8991 TAP_TAPCELL_ROW_70_1038
*8992 TAP_TAPCELL_ROW_70_1039
*8993 TAP_TAPCELL_ROW_70_1040
*8994 TAP_TAPCELL_ROW_70_1041
*8995 TAP_TAPCELL_ROW_70_1042
*8996 TAP_TAPCELL_ROW_70_1043
*8997 TAP_TAPCELL_ROW_70_1044
*8998 TAP_TAPCELL_ROW_70_1045
*8999 TAP_TAPCELL_ROW_71_1046
*9000 TAP_TAPCELL_ROW_71_1047
*9001 TAP_TAPCELL_ROW_71_1048
*9002 TAP_TAPCELL_ROW_71_1049
*9003 TAP_TAPCELL_ROW_71_1050
*9004 TAP_TAPCELL_ROW_71_1051
*9005 TAP_TAPCELL_ROW_71_1052
*9006 TAP_TAPCELL_ROW_71_1053
*9007 TAP_TAPCELL_ROW_71_1054
*9008 TAP_TAPCELL_ROW_71_1055
*9009 TAP_TAPCELL_ROW_71_1056
*9010 TAP_TAPCELL_ROW_72_1057
*9011 TAP_TAPCELL_ROW_72_1058
*9012 TAP_TAPCELL_ROW_72_1059
*9013 TAP_TAPCELL_ROW_72_1060
*9014 TAP_TAPCELL_ROW_72_1061
*9015 TAP_TAPCELL_ROW_72_1062
*9016 TAP_TAPCELL_ROW_72_1063
*9017 TAP_TAPCELL_ROW_72_1064
*9018 TAP_TAPCELL_ROW_72_1065
*9019 TAP_TAPCELL_ROW_72_1066
*9020 TAP_TAPCELL_ROW_72_1067
*9021 TAP_TAPCELL_ROW_72_1068
*9022 TAP_TAPCELL_ROW_73_1069
*9023 TAP_TAPCELL_ROW_73_1070
*9024 TAP_TAPCELL_ROW_73_1071
*9025 TAP_TAPCELL_ROW_73_1072
*9026 TAP_TAPCELL_ROW_73_1073
*9027 TAP_TAPCELL_ROW_73_1074
*9028 TAP_TAPCELL_ROW_73_1075
*9029 TAP_TAPCELL_ROW_73_1076
*9030 TAP_TAPCELL_ROW_73_1077
*9031 TAP_TAPCELL_ROW_73_1078
*9032 TAP_TAPCELL_ROW_73_1079
*9033 TAP_TAPCELL_ROW_74_1080
*9034 TAP_TAPCELL_ROW_74_1081
*9035 TAP_TAPCELL_ROW_74_1082
*9036 TAP_TAPCELL_ROW_74_1083
*9037 TAP_TAPCELL_ROW_74_1084
*9038 TAP_TAPCELL_ROW_74_1085
*9039 TAP_TAPCELL_ROW_74_1086
*9040 TAP_TAPCELL_ROW_74_1087
*9041 TAP_TAPCELL_ROW_74_1088
*9042 TAP_TAPCELL_ROW_74_1089
*9043 TAP_TAPCELL_ROW_74_1090
*9044 TAP_TAPCELL_ROW_74_1091
*9045 TAP_TAPCELL_ROW_75_1092
*9046 TAP_TAPCELL_ROW_75_1093
*9047 TAP_TAPCELL_ROW_75_1094
*9048 TAP_TAPCELL_ROW_75_1095
*9049 TAP_TAPCELL_ROW_75_1096
*9050 TAP_TAPCELL_ROW_75_1097
*9051 TAP_TAPCELL_ROW_75_1098
*9052 TAP_TAPCELL_ROW_75_1099
*9053 TAP_TAPCELL_ROW_75_1100
*9054 TAP_TAPCELL_ROW_75_1101
*9055 TAP_TAPCELL_ROW_75_1102
*9056 TAP_TAPCELL_ROW_76_1103
*9057 TAP_TAPCELL_ROW_76_1104
*9058 TAP_TAPCELL_ROW_76_1105
*9059 TAP_TAPCELL_ROW_76_1106
*9060 TAP_TAPCELL_ROW_76_1107
*9061 TAP_TAPCELL_ROW_76_1108
*9062 TAP_TAPCELL_ROW_76_1109
*9063 TAP_TAPCELL_ROW_76_1110
*9064 TAP_TAPCELL_ROW_76_1111
*9065 TAP_TAPCELL_ROW_76_1112
*9066 TAP_TAPCELL_ROW_76_1113
*9067 TAP_TAPCELL_ROW_76_1114
*9068 TAP_TAPCELL_ROW_77_1115
*9069 TAP_TAPCELL_ROW_77_1116
*9070 TAP_TAPCELL_ROW_77_1117
*9071 TAP_TAPCELL_ROW_77_1118
*9072 TAP_TAPCELL_ROW_77_1119
*9073 TAP_TAPCELL_ROW_77_1120
*9074 TAP_TAPCELL_ROW_77_1121
*9075 TAP_TAPCELL_ROW_77_1122
*9076 TAP_TAPCELL_ROW_77_1123
*9077 TAP_TAPCELL_ROW_77_1124
*9078 TAP_TAPCELL_ROW_77_1125
*9079 TAP_TAPCELL_ROW_78_1126
*9080 TAP_TAPCELL_ROW_78_1127
*9081 TAP_TAPCELL_ROW_78_1128
*9082 TAP_TAPCELL_ROW_78_1129
*9083 TAP_TAPCELL_ROW_78_1130
*9084 TAP_TAPCELL_ROW_78_1131
*9085 TAP_TAPCELL_ROW_78_1132
*9086 TAP_TAPCELL_ROW_78_1133
*9087 TAP_TAPCELL_ROW_78_1134
*9088 TAP_TAPCELL_ROW_78_1135
*9089 TAP_TAPCELL_ROW_78_1136
*9090 TAP_TAPCELL_ROW_78_1137
*9091 TAP_TAPCELL_ROW_79_1138
*9092 TAP_TAPCELL_ROW_79_1139
*9093 TAP_TAPCELL_ROW_79_1140
*9094 TAP_TAPCELL_ROW_79_1141
*9095 TAP_TAPCELL_ROW_79_1142
*9096 TAP_TAPCELL_ROW_79_1143
*9097 TAP_TAPCELL_ROW_79_1144
*9098 TAP_TAPCELL_ROW_79_1145
*9099 TAP_TAPCELL_ROW_79_1146
*9100 TAP_TAPCELL_ROW_79_1147
*9101 TAP_TAPCELL_ROW_79_1148
*9102 TAP_TAPCELL_ROW_7_310
*9103 TAP_TAPCELL_ROW_7_311
*9104 TAP_TAPCELL_ROW_7_312
*9105 TAP_TAPCELL_ROW_7_313
*9106 TAP_TAPCELL_ROW_7_314
*9107 TAP_TAPCELL_ROW_7_315
*9108 TAP_TAPCELL_ROW_7_316
*9109 TAP_TAPCELL_ROW_7_317
*9110 TAP_TAPCELL_ROW_7_318
*9111 TAP_TAPCELL_ROW_7_319
*9112 TAP_TAPCELL_ROW_7_320
*9113 TAP_TAPCELL_ROW_80_1149
*9114 TAP_TAPCELL_ROW_80_1150
*9115 TAP_TAPCELL_ROW_80_1151
*9116 TAP_TAPCELL_ROW_80_1152
*9117 TAP_TAPCELL_ROW_80_1153
*9118 TAP_TAPCELL_ROW_80_1154
*9119 TAP_TAPCELL_ROW_80_1155
*9120 TAP_TAPCELL_ROW_80_1156
*9121 TAP_TAPCELL_ROW_80_1157
*9122 TAP_TAPCELL_ROW_80_1158
*9123 TAP_TAPCELL_ROW_80_1159
*9124 TAP_TAPCELL_ROW_80_1160
*9125 TAP_TAPCELL_ROW_81_1161
*9126 TAP_TAPCELL_ROW_81_1162
*9127 TAP_TAPCELL_ROW_81_1163
*9128 TAP_TAPCELL_ROW_81_1164
*9129 TAP_TAPCELL_ROW_81_1165
*9130 TAP_TAPCELL_ROW_81_1166
*9131 TAP_TAPCELL_ROW_81_1167
*9132 TAP_TAPCELL_ROW_81_1168
*9133 TAP_TAPCELL_ROW_81_1169
*9134 TAP_TAPCELL_ROW_81_1170
*9135 TAP_TAPCELL_ROW_81_1171
*9136 TAP_TAPCELL_ROW_82_1172
*9137 TAP_TAPCELL_ROW_82_1173
*9138 TAP_TAPCELL_ROW_82_1174
*9139 TAP_TAPCELL_ROW_82_1175
*9140 TAP_TAPCELL_ROW_82_1176
*9141 TAP_TAPCELL_ROW_82_1177
*9142 TAP_TAPCELL_ROW_82_1178
*9143 TAP_TAPCELL_ROW_82_1179
*9144 TAP_TAPCELL_ROW_82_1180
*9145 TAP_TAPCELL_ROW_82_1181
*9146 TAP_TAPCELL_ROW_82_1182
*9147 TAP_TAPCELL_ROW_82_1183
*9148 TAP_TAPCELL_ROW_83_1184
*9149 TAP_TAPCELL_ROW_83_1185
*9150 TAP_TAPCELL_ROW_83_1186
*9151 TAP_TAPCELL_ROW_83_1187
*9152 TAP_TAPCELL_ROW_83_1188
*9153 TAP_TAPCELL_ROW_83_1189
*9154 TAP_TAPCELL_ROW_83_1190
*9155 TAP_TAPCELL_ROW_83_1191
*9156 TAP_TAPCELL_ROW_83_1192
*9157 TAP_TAPCELL_ROW_83_1193
*9158 TAP_TAPCELL_ROW_83_1194
*9159 TAP_TAPCELL_ROW_84_1195
*9160 TAP_TAPCELL_ROW_84_1196
*9161 TAP_TAPCELL_ROW_84_1197
*9162 TAP_TAPCELL_ROW_84_1198
*9163 TAP_TAPCELL_ROW_84_1199
*9164 TAP_TAPCELL_ROW_84_1200
*9165 TAP_TAPCELL_ROW_84_1201
*9166 TAP_TAPCELL_ROW_84_1202
*9167 TAP_TAPCELL_ROW_84_1203
*9168 TAP_TAPCELL_ROW_84_1204
*9169 TAP_TAPCELL_ROW_84_1205
*9170 TAP_TAPCELL_ROW_84_1206
*9171 TAP_TAPCELL_ROW_85_1207
*9172 TAP_TAPCELL_ROW_85_1208
*9173 TAP_TAPCELL_ROW_85_1209
*9174 TAP_TAPCELL_ROW_85_1210
*9175 TAP_TAPCELL_ROW_85_1211
*9176 TAP_TAPCELL_ROW_85_1212
*9177 TAP_TAPCELL_ROW_85_1213
*9178 TAP_TAPCELL_ROW_85_1214
*9179 TAP_TAPCELL_ROW_85_1215
*9180 TAP_TAPCELL_ROW_85_1216
*9181 TAP_TAPCELL_ROW_85_1217
*9182 TAP_TAPCELL_ROW_86_1218
*9183 TAP_TAPCELL_ROW_86_1219
*9184 TAP_TAPCELL_ROW_86_1220
*9185 TAP_TAPCELL_ROW_86_1221
*9186 TAP_TAPCELL_ROW_86_1222
*9187 TAP_TAPCELL_ROW_86_1223
*9188 TAP_TAPCELL_ROW_86_1224
*9189 TAP_TAPCELL_ROW_86_1225
*9190 TAP_TAPCELL_ROW_86_1226
*9191 TAP_TAPCELL_ROW_86_1227
*9192 TAP_TAPCELL_ROW_86_1228
*9193 TAP_TAPCELL_ROW_86_1229
*9194 TAP_TAPCELL_ROW_87_1230
*9195 TAP_TAPCELL_ROW_87_1231
*9196 TAP_TAPCELL_ROW_87_1232
*9197 TAP_TAPCELL_ROW_87_1233
*9198 TAP_TAPCELL_ROW_87_1234
*9199 TAP_TAPCELL_ROW_87_1235
*9200 TAP_TAPCELL_ROW_87_1236
*9201 TAP_TAPCELL_ROW_87_1237
*9202 TAP_TAPCELL_ROW_87_1238
*9203 TAP_TAPCELL_ROW_87_1239
*9204 TAP_TAPCELL_ROW_87_1240
*9205 TAP_TAPCELL_ROW_88_1241
*9206 TAP_TAPCELL_ROW_88_1242
*9207 TAP_TAPCELL_ROW_88_1243
*9208 TAP_TAPCELL_ROW_88_1244
*9209 TAP_TAPCELL_ROW_88_1245
*9210 TAP_TAPCELL_ROW_88_1246
*9211 TAP_TAPCELL_ROW_88_1247
*9212 TAP_TAPCELL_ROW_88_1248
*9213 TAP_TAPCELL_ROW_88_1249
*9214 TAP_TAPCELL_ROW_88_1250
*9215 TAP_TAPCELL_ROW_88_1251
*9216 TAP_TAPCELL_ROW_88_1252
*9217 TAP_TAPCELL_ROW_89_1253
*9218 TAP_TAPCELL_ROW_89_1254
*9219 TAP_TAPCELL_ROW_89_1255
*9220 TAP_TAPCELL_ROW_89_1256
*9221 TAP_TAPCELL_ROW_89_1257
*9222 TAP_TAPCELL_ROW_89_1258
*9223 TAP_TAPCELL_ROW_89_1259
*9224 TAP_TAPCELL_ROW_89_1260
*9225 TAP_TAPCELL_ROW_89_1261
*9226 TAP_TAPCELL_ROW_89_1262
*9227 TAP_TAPCELL_ROW_89_1263
*9228 TAP_TAPCELL_ROW_8_321
*9229 TAP_TAPCELL_ROW_8_322
*9230 TAP_TAPCELL_ROW_8_323
*9231 TAP_TAPCELL_ROW_8_324
*9232 TAP_TAPCELL_ROW_8_325
*9233 TAP_TAPCELL_ROW_8_326
*9234 TAP_TAPCELL_ROW_8_327
*9235 TAP_TAPCELL_ROW_8_328
*9236 TAP_TAPCELL_ROW_8_329
*9237 TAP_TAPCELL_ROW_8_330
*9238 TAP_TAPCELL_ROW_8_331
*9239 TAP_TAPCELL_ROW_8_332
*9240 TAP_TAPCELL_ROW_90_1264
*9241 TAP_TAPCELL_ROW_90_1265
*9242 TAP_TAPCELL_ROW_90_1266
*9243 TAP_TAPCELL_ROW_90_1267
*9244 TAP_TAPCELL_ROW_90_1268
*9245 TAP_TAPCELL_ROW_90_1269
*9246 TAP_TAPCELL_ROW_90_1270
*9247 TAP_TAPCELL_ROW_90_1271
*9248 TAP_TAPCELL_ROW_90_1272
*9249 TAP_TAPCELL_ROW_90_1273
*9250 TAP_TAPCELL_ROW_90_1274
*9251 TAP_TAPCELL_ROW_90_1275
*9252 TAP_TAPCELL_ROW_91_1276
*9253 TAP_TAPCELL_ROW_91_1277
*9254 TAP_TAPCELL_ROW_91_1278
*9255 TAP_TAPCELL_ROW_91_1279
*9256 TAP_TAPCELL_ROW_91_1280
*9257 TAP_TAPCELL_ROW_91_1281
*9258 TAP_TAPCELL_ROW_91_1282
*9259 TAP_TAPCELL_ROW_91_1283
*9260 TAP_TAPCELL_ROW_91_1284
*9261 TAP_TAPCELL_ROW_91_1285
*9262 TAP_TAPCELL_ROW_91_1286
*9263 TAP_TAPCELL_ROW_92_1287
*9264 TAP_TAPCELL_ROW_92_1288
*9265 TAP_TAPCELL_ROW_92_1289
*9266 TAP_TAPCELL_ROW_92_1290
*9267 TAP_TAPCELL_ROW_92_1291
*9268 TAP_TAPCELL_ROW_92_1292
*9269 TAP_TAPCELL_ROW_92_1293
*9270 TAP_TAPCELL_ROW_92_1294
*9271 TAP_TAPCELL_ROW_92_1295
*9272 TAP_TAPCELL_ROW_92_1296
*9273 TAP_TAPCELL_ROW_92_1297
*9274 TAP_TAPCELL_ROW_92_1298
*9275 TAP_TAPCELL_ROW_93_1299
*9276 TAP_TAPCELL_ROW_93_1300
*9277 TAP_TAPCELL_ROW_93_1301
*9278 TAP_TAPCELL_ROW_93_1302
*9279 TAP_TAPCELL_ROW_93_1303
*9280 TAP_TAPCELL_ROW_93_1304
*9281 TAP_TAPCELL_ROW_93_1305
*9282 TAP_TAPCELL_ROW_93_1306
*9283 TAP_TAPCELL_ROW_93_1307
*9284 TAP_TAPCELL_ROW_93_1308
*9285 TAP_TAPCELL_ROW_93_1309
*9286 TAP_TAPCELL_ROW_94_1310
*9287 TAP_TAPCELL_ROW_94_1311
*9288 TAP_TAPCELL_ROW_94_1312
*9289 TAP_TAPCELL_ROW_94_1313
*9290 TAP_TAPCELL_ROW_94_1314
*9291 TAP_TAPCELL_ROW_94_1315
*9292 TAP_TAPCELL_ROW_94_1316
*9293 TAP_TAPCELL_ROW_94_1317
*9294 TAP_TAPCELL_ROW_94_1318
*9295 TAP_TAPCELL_ROW_94_1319
*9296 TAP_TAPCELL_ROW_94_1320
*9297 TAP_TAPCELL_ROW_94_1321
*9298 TAP_TAPCELL_ROW_95_1322
*9299 TAP_TAPCELL_ROW_95_1323
*9300 TAP_TAPCELL_ROW_95_1324
*9301 TAP_TAPCELL_ROW_95_1325
*9302 TAP_TAPCELL_ROW_95_1326
*9303 TAP_TAPCELL_ROW_95_1327
*9304 TAP_TAPCELL_ROW_95_1328
*9305 TAP_TAPCELL_ROW_95_1329
*9306 TAP_TAPCELL_ROW_95_1330
*9307 TAP_TAPCELL_ROW_95_1331
*9308 TAP_TAPCELL_ROW_95_1332
*9309 TAP_TAPCELL_ROW_96_1333
*9310 TAP_TAPCELL_ROW_96_1334
*9311 TAP_TAPCELL_ROW_96_1335
*9312 TAP_TAPCELL_ROW_96_1336
*9313 TAP_TAPCELL_ROW_96_1337
*9314 TAP_TAPCELL_ROW_96_1338
*9315 TAP_TAPCELL_ROW_96_1339
*9316 TAP_TAPCELL_ROW_96_1340
*9317 TAP_TAPCELL_ROW_96_1341
*9318 TAP_TAPCELL_ROW_96_1342
*9319 TAP_TAPCELL_ROW_96_1343
*9320 TAP_TAPCELL_ROW_96_1344
*9321 TAP_TAPCELL_ROW_97_1345
*9322 TAP_TAPCELL_ROW_97_1346
*9323 TAP_TAPCELL_ROW_97_1347
*9324 TAP_TAPCELL_ROW_97_1348
*9325 TAP_TAPCELL_ROW_97_1349
*9326 TAP_TAPCELL_ROW_97_1350
*9327 TAP_TAPCELL_ROW_97_1351
*9328 TAP_TAPCELL_ROW_97_1352
*9329 TAP_TAPCELL_ROW_97_1353
*9330 TAP_TAPCELL_ROW_97_1354
*9331 TAP_TAPCELL_ROW_97_1355
*9332 TAP_TAPCELL_ROW_98_1356
*9333 TAP_TAPCELL_ROW_98_1357
*9334 TAP_TAPCELL_ROW_98_1358
*9335 TAP_TAPCELL_ROW_98_1359
*9336 TAP_TAPCELL_ROW_98_1360
*9337 TAP_TAPCELL_ROW_98_1361
*9338 TAP_TAPCELL_ROW_98_1362
*9339 TAP_TAPCELL_ROW_98_1363
*9340 TAP_TAPCELL_ROW_98_1364
*9341 TAP_TAPCELL_ROW_98_1365
*9342 TAP_TAPCELL_ROW_98_1366
*9343 TAP_TAPCELL_ROW_98_1367
*9344 TAP_TAPCELL_ROW_99_1368
*9345 TAP_TAPCELL_ROW_99_1369
*9346 TAP_TAPCELL_ROW_99_1370
*9347 TAP_TAPCELL_ROW_99_1371
*9348 TAP_TAPCELL_ROW_99_1372
*9349 TAP_TAPCELL_ROW_99_1373
*9350 TAP_TAPCELL_ROW_99_1374
*9351 TAP_TAPCELL_ROW_99_1375
*9352 TAP_TAPCELL_ROW_99_1376
*9353 TAP_TAPCELL_ROW_99_1377
*9354 TAP_TAPCELL_ROW_99_1378
*9355 TAP_TAPCELL_ROW_9_333
*9356 TAP_TAPCELL_ROW_9_334
*9357 TAP_TAPCELL_ROW_9_335
*9358 TAP_TAPCELL_ROW_9_336
*9359 TAP_TAPCELL_ROW_9_337
*9360 TAP_TAPCELL_ROW_9_338
*9361 TAP_TAPCELL_ROW_9_339
*9362 TAP_TAPCELL_ROW_9_340
*9363 TAP_TAPCELL_ROW_9_341
*9364 TAP_TAPCELL_ROW_9_342
*9365 TAP_TAPCELL_ROW_9_343
*9366 _78_
*9367 _79_
*9368 clkbuf_0_clk
*9369 clkbuf_1_0__f_clk
*9370 clkbuf_1_1__f_clk
*9371 output1
*9372 output2
*9373 soc_top_10
*9374 soc_top_11
*9375 soc_top_12
*9376 soc_top_13
*9377 soc_top_14
*9378 soc_top_15
*9379 soc_top_16
*9380 soc_top_17
*9381 soc_top_18
*9382 soc_top_19
*9383 soc_top_20
*9384 soc_top_21
*9385 soc_top_22
*9386 soc_top_23
*9387 soc_top_24
*9388 soc_top_25
*9389 soc_top_26
*9390 soc_top_27
*9391 soc_top_28
*9392 soc_top_29
*9393 soc_top_3
*9394 soc_top_30
*9395 soc_top_31
*9396 soc_top_32
*9397 soc_top_33
*9398 soc_top_34
*9399 soc_top_35
*9400 soc_top_36
*9401 soc_top_37
*9402 soc_top_38
*9403 soc_top_39
*9404 soc_top_4
*9405 soc_top_40
*9406 soc_top_41
*9407 soc_top_42
*9408 soc_top_43
*9409 soc_top_44
*9410 soc_top_45
*9411 soc_top_46
*9412 soc_top_47
*9413 soc_top_48
*9414 soc_top_49
*9415 soc_top_5
*9416 soc_top_50
*9417 soc_top_51
*9418 soc_top_52
*9419 soc_top_53
*9420 soc_top_54
*9421 soc_top_55
*9422 soc_top_56
*9423 soc_top_57
*9424 soc_top_58
*9425 soc_top_59
*9426 soc_top_6
*9427 soc_top_60
*9428 soc_top_61
*9429 soc_top_62
*9430 soc_top_63
*9431 soc_top_64
*9432 soc_top_65
*9433 soc_top_66
*9434 soc_top_67
*9435 soc_top_68
*9436 soc_top_69
*9437 soc_top_7
*9438 soc_top_70
*9439 soc_top_71
*9440 soc_top_72
*9441 soc_top_73
*9442 soc_top_74
*9443 soc_top_75
*9444 soc_top_76
*9445 soc_top_77
*9446 soc_top_78
*9447 soc_top_79
*9448 soc_top_8
*9449 soc_top_80
*9450 soc_top_9

*PORTS
clk I
gpio_in[0] I
gpio_in[1] I
gpio_in[2] I
gpio_in[3] I
gpio_in[4] I
gpio_in[5] I
gpio_in[6] I
gpio_in[7] I
gpio_out[0] O
gpio_out[1] O
gpio_out[2] O
gpio_out[3] O
gpio_out[4] O
gpio_out[5] O
gpio_out[6] O
gpio_out[7] O
i2c_scl O
i2c_sda_in I
i2c_sda_out O
mac_done O
mac_result[0] O
mac_result[10] O
mac_result[11] O
mac_result[12] O
mac_result[13] O
mac_result[14] O
mac_result[15] O
mac_result[16] O
mac_result[17] O
mac_result[18] O
mac_result[19] O
mac_result[1] O
mac_result[20] O
mac_result[21] O
mac_result[22] O
mac_result[23] O
mac_result[24] O
mac_result[25] O
mac_result[26] O
mac_result[27] O
mac_result[28] O
mac_result[29] O
mac_result[2] O
mac_result[30] O
mac_result[31] O
mac_result[32] O
mac_result[33] O
mac_result[34] O
mac_result[35] O
mac_result[36] O
mac_result[37] O
mac_result[38] O
mac_result[39] O
mac_result[3] O
mac_result[40] O
mac_result[41] O
mac_result[42] O
mac_result[43] O
mac_result[44] O
mac_result[45] O
mac_result[46] O
mac_result[47] O
mac_result[48] O
mac_result[49] O
mac_result[4] O
mac_result[50] O
mac_result[51] O
mac_result[52] O
mac_result[53] O
mac_result[54] O
mac_result[55] O
mac_result[56] O
mac_result[57] O
mac_result[58] O
mac_result[59] O
mac_result[5] O
mac_result[60] O
mac_result[61] O
mac_result[62] O
mac_result[63] O
mac_result[6] O
mac_result[7] O
mac_result[8] O
mac_result[9] O
rst I
spi_cs O
spi_miso I
spi_mosi O
spi_sclk O
timer_irq O
uart_rx I
uart_tx O

*D_NET *3 0.00681819
*CONN
*P clk I
*I *9368:A I *D sky130_fd_sc_hd__clkbuf_16
*CAP
1 clk 4.52457e-05
2 *9368:A 0
3 *3:19 0.00040943
4 *3:11 0.00291804
5 *3:9 0.00255386
6 *3:9 timer_irq 0
7 *3:19 i2c_scl 0.000796654
8 *3:19 mac_result[50] 0
9 *3:19 mac_result[61] 0
10 *3:19 *9369:A 5.41385e-05
11 *3:19 *97:8 2.93747e-05
12 *3:19 *99:10 1.14452e-05
*RES
1 clk *3:9 15.87 
2 *3:9 *3:11 48.2643 
3 *3:11 *3:19 42.5114 
4 *3:19 *9368:A 23 
*END

*D_NET *12 0.000689935
*CONN
*P gpio_out[0] O
*I *9438:LO O *D sky130_fd_sc_hd__conb_1
*CAP
1 gpio_out[0] 0.000331011
2 *9438:LO 0.000331011
3 gpio_out[0] mac_result[57] 2.79122e-05
*RES
1 *9438:LO gpio_out[0] 49.5439 
*END

*D_NET *13 0.000679365
*CONN
*P gpio_out[1] O
*I *9439:LO O *D sky130_fd_sc_hd__conb_1
*CAP
1 gpio_out[1] 0.000314615
2 *9439:LO 0.000314615
3 gpio_out[1] mac_result[0] 2.88889e-05
4 gpio_out[1] mac_result[58] 2.12457e-05
*RES
1 *9439:LO gpio_out[1] 49.8062 
*END

*D_NET *14 0.000728255
*CONN
*P gpio_out[2] O
*I *9440:LO O *D sky130_fd_sc_hd__conb_1
*CAP
1 gpio_out[2] 0.000275565
2 *9440:LO 0.000275565
3 gpio_out[2] mac_result[38] 8.73764e-05
4 gpio_out[2] mac_result[6] 8.97484e-05
*RES
1 *9440:LO gpio_out[2] 49.2777 
*END

*D_NET *15 0.00101215
*CONN
*P gpio_out[3] O
*I *9441:LO O *D sky130_fd_sc_hd__conb_1
*CAP
1 gpio_out[3] 0.000506076
2 *9441:LO 0.000506076
3 gpio_out[3] mac_result[30] 0
4 gpio_out[3] mac_result[54] 0
*RES
1 *9441:LO gpio_out[3] 48.73 
*END

*D_NET *16 0.000901682
*CONN
*P gpio_out[4] O
*I *9442:LO O *D sky130_fd_sc_hd__conb_1
*CAP
1 gpio_out[4] 0.000450841
2 *9442:LO 0.000450841
3 gpio_out[4] spi_mosi 0
*RES
1 *9442:LO gpio_out[4] 47.3214 
*END

*D_NET *17 0.000980411
*CONN
*P gpio_out[5] O
*I *9443:LO O *D sky130_fd_sc_hd__conb_1
*CAP
1 gpio_out[5] 0.000490205
2 *9443:LO 0.000490205
3 gpio_out[5] mac_result[3] 0
4 gpio_out[5] mac_result[42] 0
*RES
1 *9443:LO gpio_out[5] 48.73 
*END

*D_NET *18 0.000672451
*CONN
*P gpio_out[6] O
*I *9444:LO O *D sky130_fd_sc_hd__conb_1
*CAP
1 gpio_out[6] 0.000292537
2 *9444:LO 0.000292537
3 gpio_out[6] mac_result[10] 8.73764e-05
*RES
1 *9444:LO gpio_out[6] 48.5734 
*END

*D_NET *19 0.000612562
*CONN
*P gpio_out[7] O
*I *9445:LO O *D sky130_fd_sc_hd__conb_1
*CAP
1 gpio_out[7] 0.00027877
2 *9445:LO 0.00027877
3 gpio_out[7] mac_done 2.88889e-05
4 gpio_out[7] mac_result[57] 2.61329e-05
5 gpio_out[7] *23:10 0
*RES
1 *9445:LO gpio_out[7] 49.8062 
*END

*D_NET *20 0.0014841
*CONN
*P i2c_scl O
*I *9371:X O *D sky130_fd_sc_hd__buf_1
*CAP
1 i2c_scl 0.000343721
2 *9371:X 0.000343721
3 *3:19 i2c_scl 0.000796654
*RES
1 *9371:X i2c_scl 49.2064 
*END

*D_NET *22 0.00143644
*CONN
*P i2c_sda_out O
*I *9436:LO O *D sky130_fd_sc_hd__conb_1
*CAP
1 i2c_sda_out 8.66535e-05
2 *9436:LO 0.000417989
3 *22:10 0.000504643
4 *22:10 mac_result[24] 0
5 *22:10 *86:10 0.000427159
*RES
1 *9436:LO *22:10 49.9832 
2 *22:10 i2c_sda_out 1.97821 
*END

*D_NET *23 0.00067418
*CONN
*P mac_done O
*I *9447:LO O *D sky130_fd_sc_hd__conb_1
*CAP
1 mac_done 8.62259e-05
2 *9447:LO 0.000221975
3 *23:10 0.000308201
4 mac_done mac_result[21] 2.88889e-05
5 *23:10 *37:10 0
6 gpio_out[7] mac_done 2.88889e-05
7 gpio_out[7] *23:10 0
*RES
1 *9447:LO *23:10 42.0289 
2 *23:10 mac_done 8.4816 
*END

*D_NET *24 0.000611933
*CONN
*P mac_result[0] O
*I *9393:LO O *D sky130_fd_sc_hd__conb_1
*CAP
1 mac_result[0] 0.000273717
2 *9393:LO 0.000273717
3 mac_result[0] mac_result[18] 3.56092e-05
4 gpio_out[1] mac_result[0] 2.88889e-05
*RES
1 *9393:LO mac_result[0] 49.8062 
*END

*D_NET *25 0.000521125
*CONN
*P mac_result[10] O
*I *9376:LO O *D sky130_fd_sc_hd__conb_1
*CAP
1 mac_result[10] 0.00017632
2 *9376:LO 0.00017632
3 mac_result[10] mac_result[55] 8.11094e-05
4 gpio_out[6] mac_result[10] 8.73764e-05
*RES
1 *9376:LO mac_result[10] 47.1648 
*END

*D_NET *26 0.000661783
*CONN
*P mac_result[11] O
*I *9377:LO O *D sky130_fd_sc_hd__conb_1
*CAP
1 mac_result[11] 0.000287203
2 *9377:LO 0.000287203
3 mac_result[11] mac_result[63] 8.73764e-05
*RES
1 *9377:LO mac_result[11] 48.5734 
*END

*D_NET *27 0.000988383
*CONN
*P mac_result[12] O
*I *9378:LO O *D sky130_fd_sc_hd__conb_1
*CAP
1 mac_result[12] 0.000494191
2 *9378:LO 0.000494191
3 mac_result[12] mac_result[40] 0
4 mac_result[12] *86:10 0
*RES
1 *9378:LO mac_result[12] 48.73 
*END

*D_NET *28 0.000525469
*CONN
*P mac_result[13] O
*I *9379:LO O *D sky130_fd_sc_hd__conb_1
*CAP
1 mac_result[13] 0.000178804
2 *9379:LO 0.000178804
3 mac_result[13] mac_result[28] 8.73764e-05
4 mac_result[13] mac_result[45] 8.04845e-05
*RES
1 *9379:LO mac_result[13] 47.1648 
*END

*D_NET *29 0.000699954
*CONN
*P mac_result[14] O
*I *9380:LO O *D sky130_fd_sc_hd__conb_1
*CAP
1 mac_result[14] 0.000339354
2 *9380:LO 0.000339354
3 mac_result[14] uart_tx 2.12457e-05
*RES
1 *9380:LO mac_result[14] 49.8062 
*END

*D_NET *30 0.000672747
*CONN
*P mac_result[15] O
*I *9381:LO O *D sky130_fd_sc_hd__conb_1
*CAP
1 mac_result[15] 8.9331e-05
2 *9381:LO 0.000221975
3 *30:10 0.000311306
4 mac_result[15] mac_result[46] 2.88889e-05
5 mac_result[15] uart_tx 2.12457e-05
6 *30:10 mac_result[46] 0
*RES
1 *9381:LO *30:10 42.0289 
2 *30:10 mac_result[15] 8.4816 
*END

*D_NET *31 0.00101215
*CONN
*P mac_result[16] O
*I *9382:LO O *D sky130_fd_sc_hd__conb_1
*CAP
1 mac_result[16] 0.000506076
2 *9382:LO 0.000506076
3 mac_result[16] mac_result[29] 0
4 mac_result[16] mac_result[4] 0
*RES
1 *9382:LO mac_result[16] 48.73 
*END

*D_NET *32 0.000728255
*CONN
*P mac_result[17] O
*I *9383:LO O *D sky130_fd_sc_hd__conb_1
*CAP
1 mac_result[17] 0.000275565
2 *9383:LO 0.000275565
3 mac_result[17] mac_result[43] 8.73764e-05
4 mac_result[17] mac_result[55] 8.97484e-05
*RES
1 *9383:LO mac_result[17] 49.2777 
*END

*D_NET *33 0.00068302
*CONN
*P mac_result[18] O
*I *9384:LO O *D sky130_fd_sc_hd__conb_1
*CAP
1 mac_result[18] 0.000313082
2 *9384:LO 0.000313082
3 mac_result[18] mac_result[21] 2.12457e-05
4 mac_result[0] mac_result[18] 3.56092e-05
*RES
1 *9384:LO mac_result[18] 49.8062 
*END

*D_NET *34 0.00102929
*CONN
*P mac_result[19] O
*I *9385:LO O *D sky130_fd_sc_hd__conb_1
*CAP
1 mac_result[19] 0.000514643
2 *9385:LO 0.000514643
3 mac_result[19] mac_result[24] 0
4 mac_result[19] mac_result[2] 0
*RES
1 *9385:LO mac_result[19] 49.2064 
*END

*D_NET *35 0.00159759
*CONN
*P mac_result[1] O
*I *9404:LO O *D sky130_fd_sc_hd__conb_1
*CAP
1 mac_result[1] 0.000798794
2 *9404:LO 0
3 *35:6 0.000798794
4 mac_result[1] spi_sclk 0
*RES
1 *9404:LO *35:6 38 
2 *35:6 mac_result[1] 15.4321 
*END

*D_NET *36 0.00101215
*CONN
*P mac_result[20] O
*I *9386:LO O *D sky130_fd_sc_hd__conb_1
*CAP
1 mac_result[20] 0.000506076
2 *9386:LO 0.000506076
3 mac_result[20] mac_result[23] 0
4 mac_result[20] mac_result[48] 0
*RES
1 *9386:LO mac_result[20] 48.73 
*END

*D_NET *37 0.000745267
*CONN
*P mac_result[21] O
*I *9387:LO O *D sky130_fd_sc_hd__conb_1
*CAP
1 mac_result[21] 8.9331e-05
2 *9387:LO 0.000258235
3 *37:10 0.000347566
4 mac_done mac_result[21] 2.88889e-05
5 mac_result[18] mac_result[21] 2.12457e-05
6 *23:10 *37:10 0
*RES
1 *9387:LO *37:10 42.0289 
2 *37:10 mac_result[21] 8.4816 
*END

*D_NET *38 0.000517367
*CONN
*P mac_result[22] O
*I *9388:LO O *D sky130_fd_sc_hd__conb_1
*CAP
1 mac_result[22] 0.000174441
2 *9388:LO 0.000174441
3 mac_result[22] mac_result[31] 8.11094e-05
4 mac_result[22] mac_result[34] 8.73764e-05
*RES
1 *9388:LO mac_result[22] 47.1648 
*END

*D_NET *39 0.00101215
*CONN
*P mac_result[23] O
*I *9389:LO O *D sky130_fd_sc_hd__conb_1
*CAP
1 mac_result[23] 0.000506076
2 *9389:LO 0.000506076
3 mac_result[23] mac_result[29] 0
4 mac_result[20] mac_result[23] 0
*RES
1 *9389:LO mac_result[23] 48.73 
*END

*D_NET *40 0.00132929
*CONN
*P mac_result[24] O
*I *9390:LO O *D sky130_fd_sc_hd__conb_1
*CAP
1 mac_result[24] 0.000664647
2 *9390:LO 0
3 *40:6 0.000664647
4 mac_result[24] *98:8 0
5 mac_result[19] mac_result[24] 0
6 *22:10 mac_result[24] 0
*RES
1 *9390:LO *40:6 38 
2 *40:6 mac_result[24] 14.2514 
*END

*D_NET *41 0.000980411
*CONN
*P mac_result[25] O
*I *9391:LO O *D sky130_fd_sc_hd__conb_1
*CAP
1 mac_result[25] 0.000490205
2 *9391:LO 0.000490205
3 mac_result[25] mac_result[41] 0
4 mac_result[25] mac_result[60] 0
*RES
1 *9391:LO mac_result[25] 48.73 
*END

*D_NET *42 0.000594236
*CONN
*P mac_result[26] O
*I *9392:LO O *D sky130_fd_sc_hd__conb_1
*CAP
1 mac_result[26] 0.000213188
2 *9392:LO 0.000213188
3 mac_result[26] mac_result[5] 8.73764e-05
4 mac_result[26] mac_result[63] 8.04845e-05
*RES
1 *9392:LO mac_result[26] 47.8691 
*END

*D_NET *43 0.000980411
*CONN
*P mac_result[27] O
*I *9394:LO O *D sky130_fd_sc_hd__conb_1
*CAP
1 mac_result[27] 0.000490205
2 *9394:LO 0.000490205
3 mac_result[27] mac_result[47] 0
4 mac_result[27] mac_result[59] 0
*RES
1 *9394:LO mac_result[27] 48.73 
*END

*D_NET *44 0.000666554
*CONN
*P mac_result[28] O
*I *9395:LO O *D sky130_fd_sc_hd__conb_1
*CAP
1 mac_result[28] 0.000244715
2 *9395:LO 0.000244715
3 mac_result[28] mac_result[36] 8.97484e-05
4 mac_result[13] mac_result[28] 8.73764e-05
*RES
1 *9395:LO mac_result[28] 48.5734 
*END

*D_NET *45 0.00101215
*CONN
*P mac_result[29] O
*I *9396:LO O *D sky130_fd_sc_hd__conb_1
*CAP
1 mac_result[29] 0.000506076
2 *9396:LO 0.000506076
3 mac_result[16] mac_result[29] 0
4 mac_result[23] mac_result[29] 0
*RES
1 *9396:LO mac_result[29] 48.73 
*END

*D_NET *46 0.00109984
*CONN
*P mac_result[2] O
*I *9415:LO O *D sky130_fd_sc_hd__conb_1
*CAP
1 mac_result[2] 0.000533775
2 *9415:LO 0.000533775
3 mac_result[2] spi_sclk 0
4 mac_result[2] *9370:A 3.22879e-05
5 mac_result[19] mac_result[2] 0
*RES
1 *9415:LO mac_result[2] 49.3514 
*END

*D_NET *47 0.00101215
*CONN
*P mac_result[30] O
*I *9397:LO O *D sky130_fd_sc_hd__conb_1
*CAP
1 mac_result[30] 0.000506076
2 *9397:LO 0.000506076
3 mac_result[30] mac_result[48] 0
4 gpio_out[3] mac_result[30] 0
*RES
1 *9397:LO mac_result[30] 48.73 
*END

*D_NET *48 0.000574411
*CONN
*P mac_result[31] O
*I *9398:LO O *D sky130_fd_sc_hd__conb_1
*CAP
1 mac_result[31] 0.000201777
2 *9398:LO 0.000201777
3 mac_result[31] mac_result[43] 8.97484e-05
4 mac_result[22] mac_result[31] 8.11094e-05
*RES
1 *9398:LO mac_result[31] 47.8691 
*END

*D_NET *49 0.000901682
*CONN
*P mac_result[32] O
*I *9399:LO O *D sky130_fd_sc_hd__conb_1
*CAP
1 mac_result[32] 0.000450841
2 *9399:LO 0.000450841
3 mac_result[32] mac_result[49] 0
4 mac_result[32] spi_mosi 0
*RES
1 *9399:LO mac_result[32] 47.3214 
*END

*D_NET *50 0.00112591
*CONN
*P mac_result[33] O
*I *9400:LO O *D sky130_fd_sc_hd__conb_1
*CAP
1 mac_result[33] 0.000562955
2 *9400:LO 0.000562955
3 mac_result[33] mac_result[4] 0
4 mac_result[33] mac_result[9] 0
*RES
1 *9400:LO mac_result[33] 49.3514 
*END

*D_NET *51 0.000709127
*CONN
*P mac_result[34] O
*I *9401:LO O *D sky130_fd_sc_hd__conb_1
*CAP
1 mac_result[34] 0.000267187
2 *9401:LO 0.000267187
3 mac_result[34] mac_result[62] 8.73764e-05
4 mac_result[22] mac_result[34] 8.73764e-05
*RES
1 *9401:LO mac_result[34] 48.9255 
*END

*D_NET *52 0.000901682
*CONN
*P mac_result[35] O
*I *9402:LO O *D sky130_fd_sc_hd__conb_1
*CAP
1 mac_result[35] 0.000450841
2 *9402:LO 0.000450841
3 mac_result[35] mac_result[51] 0
*RES
1 *9402:LO mac_result[35] 47.3214 
*END

*D_NET *53 0.000653561
*CONN
*P mac_result[36] O
*I *9403:LO O *D sky130_fd_sc_hd__conb_1
*CAP
1 mac_result[36] 0.000237032
2 *9403:LO 0.000237032
3 mac_result[36] mac_result[44] 8.97484e-05
4 mac_result[28] mac_result[36] 8.97484e-05
*RES
1 *9403:LO mac_result[36] 48.5734 
*END

*D_NET *54 0.000980411
*CONN
*P mac_result[37] O
*I *9405:LO O *D sky130_fd_sc_hd__conb_1
*CAP
1 mac_result[37] 0.000490205
2 *9405:LO 0.000490205
3 mac_result[37] mac_result[41] 0
4 mac_result[37] mac_result[59] 0
*RES
1 *9405:LO mac_result[37] 48.73 
*END

*D_NET *55 0.000517367
*CONN
*P mac_result[38] O
*I *9406:LO O *D sky130_fd_sc_hd__conb_1
*CAP
1 mac_result[38] 0.000174441
2 *9406:LO 0.000174441
3 mac_result[38] mac_result[53] 8.11094e-05
4 gpio_out[2] mac_result[38] 8.73764e-05
*RES
1 *9406:LO mac_result[38] 47.1648 
*END

*D_NET *56 0.000758385
*CONN
*P mac_result[39] O
*I *9407:LO O *D sky130_fd_sc_hd__conb_1
*CAP
1 mac_result[39] 0.000306479
2 *9407:LO 0.000306479
3 mac_result[39] mac_result[56] 7.27133e-05
4 mac_result[39] mac_result[5] 7.27133e-05
*RES
1 *9407:LO mac_result[39] 49.6298 
*END

*D_NET *57 0.000980411
*CONN
*P mac_result[3] O
*I *9426:LO O *D sky130_fd_sc_hd__conb_1
*CAP
1 mac_result[3] 0.000490205
2 *9426:LO 0.000490205
3 gpio_out[5] mac_result[3] 0
*RES
1 *9426:LO mac_result[3] 48.73 
*END

*D_NET *58 0.000981246
*CONN
*P mac_result[40] O
*I *9408:LO O *D sky130_fd_sc_hd__conb_1
*CAP
1 mac_result[40] 0.000490623
2 *9408:LO 0.000490623
3 mac_result[40] mac_result[7] 0
4 mac_result[12] mac_result[40] 0
*RES
1 *9408:LO mac_result[40] 48.73 
*END

*D_NET *59 0.000980411
*CONN
*P mac_result[41] O
*I *9409:LO O *D sky130_fd_sc_hd__conb_1
*CAP
1 mac_result[41] 0.000490205
2 *9409:LO 0.000490205
3 mac_result[25] mac_result[41] 0
4 mac_result[37] mac_result[41] 0
*RES
1 *9409:LO mac_result[41] 48.73 
*END

*D_NET *60 0.000980411
*CONN
*P mac_result[42] O
*I *9410:LO O *D sky130_fd_sc_hd__conb_1
*CAP
1 mac_result[42] 0.000490205
2 *9410:LO 0.000490205
3 mac_result[42] mac_result[47] 0
4 gpio_out[5] mac_result[42] 0
*RES
1 *9410:LO mac_result[42] 48.73 
*END

*D_NET *61 0.000603582
*CONN
*P mac_result[43] O
*I *9411:LO O *D sky130_fd_sc_hd__conb_1
*CAP
1 mac_result[43] 0.000213229
2 *9411:LO 0.000213229
3 mac_result[17] mac_result[43] 8.73764e-05
4 mac_result[31] mac_result[43] 8.97484e-05
*RES
1 *9411:LO mac_result[43] 47.8691 
*END

*D_NET *62 0.000522951
*CONN
*P mac_result[44] O
*I *9412:LO O *D sky130_fd_sc_hd__conb_1
*CAP
1 mac_result[44] 0.000187314
2 *9412:LO 0.000187314
3 mac_result[44] mac_result[56] 5.85743e-05
4 mac_result[36] mac_result[44] 8.97484e-05
*RES
1 *9412:LO mac_result[44] 47.1648 
*END

*D_NET *63 0.000582513
*CONN
*P mac_result[45] O
*I *9413:LO O *D sky130_fd_sc_hd__conb_1
*CAP
1 mac_result[45] 0.00020614
2 *9413:LO 0.00020614
3 mac_result[45] mac_result[6] 8.97484e-05
4 mac_result[13] mac_result[45] 8.04845e-05
*RES
1 *9413:LO mac_result[45] 47.8691 
*END

*D_NET *64 0.000608278
*CONN
*P mac_result[46] O
*I *9414:LO O *D sky130_fd_sc_hd__conb_1
*CAP
1 mac_result[46] 0.00027525
2 *9414:LO 0.00027525
3 mac_result[46] spi_cs 2.88889e-05
4 mac_result[15] mac_result[46] 2.88889e-05
5 *30:10 mac_result[46] 0
*RES
1 *9414:LO mac_result[46] 49.8062 
*END

*D_NET *65 0.000980411
*CONN
*P mac_result[47] O
*I *9416:LO O *D sky130_fd_sc_hd__conb_1
*CAP
1 mac_result[47] 0.000490205
2 *9416:LO 0.000490205
3 mac_result[27] mac_result[47] 0
4 mac_result[42] mac_result[47] 0
*RES
1 *9416:LO mac_result[47] 48.73 
*END

*D_NET *66 0.00101215
*CONN
*P mac_result[48] O
*I *9417:LO O *D sky130_fd_sc_hd__conb_1
*CAP
1 mac_result[48] 0.000506076
2 *9417:LO 0.000506076
3 mac_result[20] mac_result[48] 0
4 mac_result[30] mac_result[48] 0
*RES
1 *9417:LO mac_result[48] 48.73 
*END

*D_NET *67 0.000901682
*CONN
*P mac_result[49] O
*I *9418:LO O *D sky130_fd_sc_hd__conb_1
*CAP
1 mac_result[49] 0.000450841
2 *9418:LO 0.000450841
3 mac_result[49] mac_result[52] 0
4 mac_result[32] mac_result[49] 0
*RES
1 *9418:LO mac_result[49] 47.3214 
*END

*D_NET *68 0.00111875
*CONN
*P mac_result[4] O
*I *9437:LO O *D sky130_fd_sc_hd__conb_1
*CAP
1 mac_result[4] 0.000559376
2 *9437:LO 0.000559376
3 mac_result[16] mac_result[4] 0
4 mac_result[33] mac_result[4] 0
*RES
1 *9437:LO mac_result[4] 49.3514 
*END

*D_NET *69 0.00138126
*CONN
*P mac_result[50] O
*I *9419:LO O *D sky130_fd_sc_hd__conb_1
*CAP
1 mac_result[50] 0.000690628
2 *9419:LO 0
3 *69:6 0.000690628
4 mac_result[50] mac_result[61] 0
5 mac_result[50] mac_result[9] 0
6 mac_result[50] *99:10 0
7 *3:19 mac_result[50] 0
*RES
1 *9419:LO *69:6 38 
2 *69:6 mac_result[50] 14.2514 
*END

*D_NET *70 0.000901682
*CONN
*P mac_result[51] O
*I *9420:LO O *D sky130_fd_sc_hd__conb_1
*CAP
1 mac_result[51] 0.000450841
2 *9420:LO 0.000450841
3 mac_result[51] mac_result[52] 0
4 mac_result[35] mac_result[51] 0
*RES
1 *9420:LO mac_result[51] 47.3214 
*END

*D_NET *71 0.000901682
*CONN
*P mac_result[52] O
*I *9421:LO O *D sky130_fd_sc_hd__conb_1
*CAP
1 mac_result[52] 0.000450841
2 *9421:LO 0.000450841
3 mac_result[49] mac_result[52] 0
4 mac_result[51] mac_result[52] 0
*RES
1 *9421:LO mac_result[52] 47.3214 
*END

*D_NET *72 0.000509402
*CONN
*P mac_result[53] O
*I *9422:LO O *D sky130_fd_sc_hd__conb_1
*CAP
1 mac_result[53] 0.000169272
2 *9422:LO 0.000169272
3 mac_result[53] mac_result[62] 8.97484e-05
4 mac_result[38] mac_result[53] 8.11094e-05
*RES
1 *9422:LO mac_result[53] 47.1648 
*END

*D_NET *73 0.00101215
*CONN
*P mac_result[54] O
*I *9423:LO O *D sky130_fd_sc_hd__conb_1
*CAP
1 mac_result[54] 0.000506076
2 *9423:LO 0.000506076
3 mac_result[54] timer_irq 0
4 gpio_out[3] mac_result[54] 0
*RES
1 *9423:LO mac_result[54] 48.73 
*END

*D_NET *74 0.000505644
*CONN
*P mac_result[55] O
*I *9424:LO O *D sky130_fd_sc_hd__conb_1
*CAP
1 mac_result[55] 0.000167393
2 *9424:LO 0.000167393
3 mac_result[10] mac_result[55] 8.11094e-05
4 mac_result[17] mac_result[55] 8.97484e-05
*RES
1 *9424:LO mac_result[55] 47.1648 
*END

*D_NET *75 0.000529801
*CONN
*P mac_result[56] O
*I *9425:LO O *D sky130_fd_sc_hd__conb_1
*CAP
1 mac_result[56] 0.000199257
2 *9425:LO 0.000199257
3 mac_result[39] mac_result[56] 7.27133e-05
4 mac_result[44] mac_result[56] 5.85743e-05
*RES
1 *9425:LO mac_result[56] 47.1648 
*END

*D_NET *76 0.000638651
*CONN
*P mac_result[57] O
*I *9427:LO O *D sky130_fd_sc_hd__conb_1
*CAP
1 mac_result[57] 0.000292303
2 *9427:LO 0.000292303
3 gpio_out[0] mac_result[57] 2.79122e-05
4 gpio_out[7] mac_result[57] 2.61329e-05
*RES
1 *9427:LO mac_result[57] 49.8062 
*END

*D_NET *77 0.000677892
*CONN
*P mac_result[58] O
*I *9428:LO O *D sky130_fd_sc_hd__conb_1
*CAP
1 mac_result[58] 0.000314367
2 *9428:LO 0.000314367
3 mac_result[58] spi_cs 2.79122e-05
4 gpio_out[1] mac_result[58] 2.12457e-05
*RES
1 *9428:LO mac_result[58] 49.1918 
*END

*D_NET *78 0.000980411
*CONN
*P mac_result[59] O
*I *9429:LO O *D sky130_fd_sc_hd__conb_1
*CAP
1 mac_result[59] 0.000490205
2 *9429:LO 0.000490205
3 mac_result[27] mac_result[59] 0
4 mac_result[37] mac_result[59] 0
*RES
1 *9429:LO mac_result[59] 48.73 
*END

*D_NET *79 0.000614191
*CONN
*P mac_result[5] O
*I *9448:LO O *D sky130_fd_sc_hd__conb_1
*CAP
1 mac_result[5] 0.00022705
2 *9448:LO 0.00022705
3 mac_result[26] mac_result[5] 8.73764e-05
4 mac_result[39] mac_result[5] 7.27133e-05
*RES
1 *9448:LO mac_result[5] 47.8691 
*END

*D_NET *80 0.000980411
*CONN
*P mac_result[60] O
*I *9430:LO O *D sky130_fd_sc_hd__conb_1
*CAP
1 mac_result[60] 0.000490205
2 *9430:LO 0.000490205
3 mac_result[60] mac_result[7] 0
4 mac_result[25] mac_result[60] 0
*RES
1 *9430:LO mac_result[60] 48.73 
*END

*D_NET *81 0.00115285
*CONN
*P mac_result[61] O
*I *9431:LO O *D sky130_fd_sc_hd__conb_1
*CAP
1 mac_result[61] 0.000548073
2 *9431:LO 0.000548073
3 mac_result[61] *9369:A 5.67058e-05
4 mac_result[50] mac_result[61] 0
5 *3:19 mac_result[61] 0
*RES
1 *9431:LO mac_result[61] 49.3514 
*END

*D_NET *82 0.000665283
*CONN
*P mac_result[62] O
*I *9432:LO O *D sky130_fd_sc_hd__conb_1
*CAP
1 mac_result[62] 0.000244079
2 *9432:LO 0.000244079
3 mac_result[34] mac_result[62] 8.73764e-05
4 mac_result[53] mac_result[62] 8.97484e-05
*RES
1 *9432:LO mac_result[62] 48.5734 
*END

*D_NET *83 0.000525469
*CONN
*P mac_result[63] O
*I *9433:LO O *D sky130_fd_sc_hd__conb_1
*CAP
1 mac_result[63] 0.000178804
2 *9433:LO 0.000178804
3 mac_result[11] mac_result[63] 8.73764e-05
4 mac_result[26] mac_result[63] 8.04845e-05
*RES
1 *9433:LO mac_result[63] 47.1648 
*END

*D_NET *84 0.00059186
*CONN
*P mac_result[6] O
*I *9450:LO O *D sky130_fd_sc_hd__conb_1
*CAP
1 mac_result[6] 0.000206181
2 *9450:LO 0.000206181
3 gpio_out[2] mac_result[6] 8.97484e-05
4 mac_result[45] mac_result[6] 8.97484e-05
*RES
1 *9450:LO mac_result[6] 47.8691 
*END

*D_NET *85 0.000980411
*CONN
*P mac_result[7] O
*I *9373:LO O *D sky130_fd_sc_hd__conb_1
*CAP
1 mac_result[7] 0.000490205
2 *9373:LO 0.000490205
3 mac_result[40] mac_result[7] 0
4 mac_result[60] mac_result[7] 0
*RES
1 *9373:LO mac_result[7] 48.73 
*END

*D_NET *86 0.00137036
*CONN
*P mac_result[8] O
*I *9374:LO O *D sky130_fd_sc_hd__conb_1
*CAP
1 mac_result[8] 2.40452e-05
2 *9374:LO 0.000447557
3 *86:10 0.000471602
4 mac_result[12] *86:10 0
5 *22:10 *86:10 0.000427159
*RES
1 *9374:LO *86:10 49.7554 
2 *86:10 mac_result[8] 0.548929 
*END

*D_NET *87 0.00138839
*CONN
*P mac_result[9] O
*I *9375:LO O *D sky130_fd_sc_hd__conb_1
*CAP
1 mac_result[9] 0.000694196
2 *9375:LO 0
3 *87:6 0.000694196
4 mac_result[33] mac_result[9] 0
5 mac_result[50] mac_result[9] 0
*RES
1 *9375:LO *87:6 38 
2 *87:6 mac_result[9] 14.2514 
*END

*D_NET *89 0.000635147
*CONN
*P spi_cs O
*I *9434:LO O *D sky130_fd_sc_hd__conb_1
*CAP
1 spi_cs 0.000289173
2 *9434:LO 0.000289173
3 mac_result[46] spi_cs 2.88889e-05
4 mac_result[58] spi_cs 2.79122e-05
*RES
1 *9434:LO spi_cs 49.8062 
*END

*D_NET *91 0.000901682
*CONN
*P spi_mosi O
*I *9435:LO O *D sky130_fd_sc_hd__conb_1
*CAP
1 spi_mosi 0.000450841
2 *9435:LO 0.000450841
3 gpio_out[4] spi_mosi 0
4 mac_result[32] spi_mosi 0
*RES
1 *9435:LO spi_mosi 47.3214 
*END

*D_NET *92 0.00146165
*CONN
*P spi_sclk O
*I *9372:X O *D sky130_fd_sc_hd__buf_1
*CAP
1 spi_sclk 0.000730823
2 *9372:X 0
3 *92:6 0.000730823
4 mac_result[1] spi_sclk 0
5 mac_result[2] spi_sclk 0
*RES
1 *9372:X *92:6 38 
2 *92:6 spi_sclk 14.9557 
*END

*D_NET *93 0.00101215
*CONN
*P timer_irq O
*I *9446:LO O *D sky130_fd_sc_hd__conb_1
*CAP
1 timer_irq 0.000506076
2 *9446:LO 0.000506076
3 mac_result[54] timer_irq 0
4 *3:9 timer_irq 0
*RES
1 *9446:LO timer_irq 48.73 
*END

*D_NET *95 0.000664834
*CONN
*P uart_tx O
*I *9449:LO O *D sky130_fd_sc_hd__conb_1
*CAP
1 uart_tx 0.000311171
2 *9449:LO 0.000311171
3 mac_result[14] uart_tx 2.12457e-05
4 mac_result[15] uart_tx 2.12457e-05
*RES
1 *9449:LO uart_tx 48.8397 
*END

*D_NET *96 0.00233304
*CONN
*I *9370:A I *D sky130_fd_sc_hd__clkbuf_16
*I *9369:A I *D sky130_fd_sc_hd__clkbuf_16
*I *9368:X O *D sky130_fd_sc_hd__clkbuf_16
*CAP
1 *9370:A 0.000411588
2 *9369:A 0.000639446
3 *9368:X 0
4 *96:4 0.00105103
5 *9369:A *97:8 8.7843e-05
6 mac_result[2] *9370:A 3.22879e-05
7 mac_result[61] *9369:A 5.67058e-05
8 *3:19 *9369:A 5.41385e-05
*RES
1 *9368:X *96:4 23 
2 *96:4 *9369:A 34.9521 
3 *96:4 *9370:A 30.8093 
*END

*D_NET *97 0.0019535
*CONN
*I *9366:A I *D sky130_fd_sc_hd__buf_2
*I *9369:X O *D sky130_fd_sc_hd__clkbuf_16
*CAP
1 *9366:A 0.000107206
2 *9369:X 0.000791744
3 *97:8 0.00089895
4 *9366:A *99:10 3.83778e-05
5 *9369:A *97:8 8.7843e-05
6 *3:19 *97:8 2.93747e-05
*RES
1 *9369:X *97:8 48.6264 
2 *97:8 *9366:A 39.9057 
*END

*D_NET *98 0.00225563
*CONN
*I *9367:A I *D sky130_fd_sc_hd__buf_2
*I *9370:X O *D sky130_fd_sc_hd__clkbuf_16
*CAP
1 *9367:A 0
2 *9370:X 0.000126199
3 *98:14 0.000805941
4 *98:8 0.00093214
5 *98:14 *100:12 0.000391345
6 mac_result[24] *98:8 0
*RES
1 *9370:X *98:8 40.2579 
2 *98:8 *98:14 31.3643 
3 *98:14 *9367:A 23 
*END

*D_NET *99 0.000575092
*CONN
*I *9371:A I *D sky130_fd_sc_hd__buf_1
*I *9366:X O *D sky130_fd_sc_hd__buf_2
*CAP
1 *9371:A 0
2 *9366:X 0.000262634
3 *99:10 0.000262634
4 mac_result[50] *99:10 0
5 *9366:A *99:10 3.83778e-05
6 *3:19 *99:10 1.14452e-05
*RES
1 *9366:X *99:10 41.9564 
2 *99:10 *9371:A 38 
*END

*D_NET *100 0.000948727
*CONN
*I *9372:A I *D sky130_fd_sc_hd__buf_1
*I *9367:X O *D sky130_fd_sc_hd__buf_2
*CAP
1 *9372:A 0
2 *9367:X 0.000278691
3 *100:12 0.000278691
4 *98:14 *100:12 0.000391345
*RES
1 *9367:X *100:12 29.525 
2 *100:12 *9372:A 23 
*END
